
     Program PWSCF v.6.8 starts on 18Jul2025 at 20:51: 6 

     This program is part of the open-source Quantum ESPRESSO suite
     for quantum simulation of materials; please cite
         "P. Giannozzi et al., J. Phys.:Condens. Matter 21 395502 (2009);
         "P. Giannozzi et al., J. Phys.:Condens. Matter 29 465901 (2017);
         "P. Giannozzi et al., J. Chem. Phys. 152 154105 (2020);
          URL http://www.quantum-espresso.org", 
     in publications or presentations arising from this work. More details at
     http://www.quantum-espresso.org/quote

     Parallel version (MPI), running on    64 processors

     MPI processes distributed on     2 nodes
     R & G space division:  proc/nbgrp/npool/nimage =      64
     328976 MiB available memory on the printing compute node when the environment starts
 
     Reading input from pwscf.in

     Current dimensions of program PWSCF are:
     Max number of different atomic species (ntypx) = 10
     Max number of k-points (npk) =  40000
     Max angular momentum in pseudopotentials (lmaxx) =  4
     file O.pbesol-n-kjpaw_psl.0.1.UPF: wavefunction(s)  2P renormalized

     -------------------------------------------------
     Parameters for Dispersion (Grimme-D2) Correction:
     -------------------------------------------------
       atom      VdW radius       C_6     

        H          1.892          4.857
        O          2.536         24.284
        Si         3.243        320.200
        Cl         3.097        175.885

     gamma-point specific algorithms are used

     Subspace diagonalization in iterative solution of the eigenvalue problem:
     one sub-group per band group will be used
     scalapack distributed-memory algorithm (size of sub-group:  8*  8 procs)

 
     Parallelization info
     --------------------
     sticks:   dense  smooth     PW     G-vecs:    dense   smooth      PW
     Min         186      92     22                67334    23772    2942
     Max         188      94     24                67396    23854    3008
     Sum       11959    5957   1483              4310687  1523803  190433
 
     Using Slab Decomposition
 


     bravais-lattice index     =            0
     lattice parameter (alat)  =      19.0023  a.u.
     unit-cell volume          =   24273.0715 (a.u.)^3
     number of atoms/cell      =            4
     number of atomic types    =            4
     number of electrons       =        25.00
     number of Kohn-Sham states=           17
     kinetic-energy cutoff     =      60.0000  Ry
     charge density cutoff     =     480.0000  Ry
     scf convergence threshold =      1.5E-08
     mixing beta               =       0.4000
     number of iterations used =            8  plain     mixing
     energy convergence thresh.=      7.7E-04
     force convergence thresh. =      1.0E-04
     Exchange-correlation= SLA  PW   PSX  PSC
                           (   1   4  10   8   0   0   0)
     nstep                     =          100


     celldm(1)=  19.002262  celldm(2)=   0.000000  celldm(3)=   0.000000
     celldm(4)=   0.000000  celldm(5)=   0.000000  celldm(6)=   0.000000

     crystal axes: (cart. coord. in units of alat)
               a(1) = (   1.000000   0.000000   0.000000 )  
               a(2) = (   0.000000   0.866025   0.000000 )  
               a(3) = (   0.000000   0.000000   4.084870 )  

     reciprocal axes: (cart. coord. in units 2 pi/alat)
               b(1) = (  1.000000  0.000000  0.000000 )  
               b(2) = (  0.000000  1.154701  0.000000 )  
               b(3) = (  0.000000  0.000000  0.244806 )  


     PseudoPot. # 1 for H  read from file:
     ./pseudo/H.pbesol-rrkjus_psl.1.0.0.UPF
     MD5 check sum: 0324ed591cc0147dc3d88cad0d33f665
     Pseudo is Ultrasoft, Zval =  1.0
     Generated using "atomic" code by A. Dal Corso  v.6.0 svn rev. 13079
     Using radial grid of  929 points,  2 beta functions with: 
                l(1) =   0
                l(2) =   0
     Q(r) pseudized with 0 coefficients 


     PseudoPot. # 2 for O  read from file:
     ./pseudo/O.pbesol-n-kjpaw_psl.0.1.UPF
     MD5 check sum: 81d73d1479e654e5638b0319f0d6c2c7
     Pseudo is Projector augmented-wave + core cor, Zval =  6.0
     Generated using "atomic" code by A. Dal Corso  v.6.0 svn rev. 13079
     Shape of augmentation charge: BESSEL
     Using radial grid of 1095 points,  4 beta functions with: 
                l(1) =   0
                l(2) =   0
                l(3) =   1
                l(4) =   1
     Q(r) pseudized with 0 coefficients 


     PseudoPot. # 3 for Si read from file:
     ./pseudo/Si.pbesol-n-rrkjus_psl.1.0.0.UPF
     MD5 check sum: c4212819de858c94c3a1644338846ac9
     Pseudo is Ultrasoft + core correction, Zval =  4.0
     Generated using "atomic" code by A. Dal Corso  v.6.0 svn rev. 13079
     Using radial grid of 1141 points,  6 beta functions with: 
                l(1) =   0
                l(2) =   0
                l(3) =   1
                l(4) =   1
                l(5) =   2
                l(6) =   2
     Q(r) pseudized with 0 coefficients 


     PseudoPot. # 4 for Cl read from file:
     ./pseudo/cl_pbesol_v1.4.uspp.F.UPF
     MD5 check sum: ed6bbcf06f19043c0df9f6394706ff8f
     Pseudo is Ultrasoft + core correction, Zval =  7.0
     Generated by new atomic code, or converted to UPF format
     Using radial grid of  909 points,  6 beta functions with: 
                l(1) =   0
                l(2) =   0
                l(3) =   1
                l(4) =   1
                l(5) =   2
                l(6) =   2
     Q(r) pseudized with  8 coefficients,  rinner =    1.300   1.300   1.300
                                                       1.300   1.300

     atomic species   valence    mass     pseudopotential
        H              1.00     1.00794     H ( 1.00)
        O              6.00    15.99940     O ( 1.00)
        Si             4.00    28.08550     Si( 1.00)
        Cl             7.00    35.45300     Cl( 1.00)

     No symmetry found


                                    s                        frac. trans.

      isym =  1     identity                                     

 cryst.   s( 1) = (     1          0          0      )
                  (     0          1          0      )
                  (     0          0          1      )

 cart.    s( 1) = (  1.0000000  0.0000000  0.0000000 )
                  (  0.0000000  1.0000000  0.0000000 )
                  (  0.0000000  0.0000000  1.0000000 )


   Cartesian axes

     site n.     atom                  positions (alat units)
         1           Si  tau(   1) = (   0.4986135   0.4620019   2.0178629  )
         2           Cl  tau(   2) = (   0.5494739   0.5911692   2.0437650  )
         3           Cl  tau(   3) = (   0.3657617   0.4534067   2.0649593  )
         4           Cl  tau(   4) = (   0.5782818   0.3659228   2.0839199  )

   Crystallographic axes

     site n.     atom                  positions (cryst. coord.)
         1           Si  tau(   1) = (  0.4986135  0.5334739  0.4939846  )
         2           Cl  tau(   2) = (  0.5494739  0.6826235  0.5003256  )
         3           Cl  tau(   3) = (  0.3657617  0.5235490  0.5055141  )
         4           Cl  tau(   4) = (  0.5782818  0.4225313  0.5101557  )

     number of k points=     1  Marzari-Vanderbilt smearing, width (Ry)=  0.0147
                       cart. coord. in units 2pi/alat
        k(    1) = (   0.0000000   0.0000000   0.0000000), wk =   2.0000000

                       cryst. coord.
        k(    1) = (   0.0000000   0.0000000   0.0000000), wk =   2.0000000

     Dense  grid:  2155344 G-vectors     FFT dimensions: ( 135, 120, 576)

     Smooth grid:   761902 G-vectors     FFT dimensions: (  96,  81, 384)

     Dynamical RAM for                 wfc:       0.39 MB

     Dynamical RAM for     wfc (w. buffer):       0.39 MB

     Dynamical RAM for           str. fact:       2.06 MB

     Dynamical RAM for           local pot:       0.00 MB

     Dynamical RAM for          nlocal pot:       1.63 MB

     Dynamical RAM for                qrad:       7.03 MB

     Dynamical RAM for          rho,v,vnew:       4.88 MB

     Dynamical RAM for               rhoin:       1.63 MB

     Dynamical RAM for            rho*nmix:       8.22 MB

     Dynamical RAM for           G-vectors:       2.02 MB

     Dynamical RAM for          h,s,v(r/c):       0.00 MB

     Dynamical RAM for          <psi|beta>:       0.01 MB

     Dynamical RAM for                 psi:       0.77 MB

     Dynamical RAM for                hpsi:       0.77 MB

     Dynamical RAM for                spsi:       0.77 MB

     Dynamical RAM for      wfcinit/wfcrot:       0.78 MB

     Dynamical RAM for           addusdens:      97.11 MB

     Dynamical RAM for          addusforce:      99.43 MB

     Dynamical RAM for         addusstress:     103.28 MB

     Estimated static dynamical RAM per process >      27.76 MB

     Estimated max dynamical RAM per process >     139.26 MB

     Estimated total dynamical RAM >       8.70 GB

     Initial potential from superposition of free atoms

     starting charge   24.99944, renormalised to   25.00000

     negative rho (up, down):  3.723E-02 0.000E+00
     Starting wfcs are   16 randomized atomic wfcs +    1 random wfcs
     Checking if some PAW data can be deallocated... 
       PAW data deallocated on   64 nodes for type:  2

     total cpu time spent up to now is        3.5 secs

     Self-consistent Calculation

     iteration #  1     ecut=    60.00 Ry     beta= 0.40
     Davidson diagonalization with overlap

---- Real-time Memory Report at c_bands before calling an iterative solver
           345 MiB given to the printing process from OS
             0 MiB allocation reported by mallinfo(arena+hblkhd)
        326829 MiB available memory on the node where the printing process lives
------------------
     ethr =  1.00E-02,  avg # of iterations =  5.0

     negative rho (up, down):  4.043E-02 0.000E+00

     total cpu time spent up to now is        4.3 secs

     total energy              =    -108.44162620 Ry
     estimated scf accuracy    <       1.13138457 Ry

     iteration #  2     ecut=    60.00 Ry     beta= 0.40
     Davidson diagonalization with overlap

---- Real-time Memory Report at c_bands before calling an iterative solver
           385 MiB given to the printing process from OS
             0 MiB allocation reported by mallinfo(arena+hblkhd)
        325948 MiB available memory on the node where the printing process lives
------------------
     ethr =  4.53E-03,  avg # of iterations =  2.0

     negative rho (up, down):  4.230E-02 0.000E+00

     total cpu time spent up to now is        5.0 secs

     total energy              =    -108.60904368 Ry
     estimated scf accuracy    <       0.05231032 Ry

     iteration #  3     ecut=    60.00 Ry     beta= 0.40
     Davidson diagonalization with overlap

---- Real-time Memory Report at c_bands before calling an iterative solver
           392 MiB given to the printing process from OS
             0 MiB allocation reported by mallinfo(arena+hblkhd)
        325788 MiB available memory on the node where the printing process lives
------------------
     c_bands:  1 eigenvalues not converged
     ethr =  2.09E-04,  avg # of iterations = 20.0

     negative rho (up, down):  4.365E-02 0.000E+00

     total cpu time spent up to now is        5.8 secs

     total energy              =    -108.61486900 Ry
     estimated scf accuracy    <       0.01272339 Ry

     iteration #  4     ecut=    60.00 Ry     beta= 0.40
     Davidson diagonalization with overlap

---- Real-time Memory Report at c_bands before calling an iterative solver
           395 MiB given to the printing process from OS
             0 MiB allocation reported by mallinfo(arena+hblkhd)
        325761 MiB available memory on the node where the printing process lives
------------------
     ethr =  5.09E-05,  avg # of iterations =  3.0

     negative rho (up, down):  4.382E-02 0.000E+00

     total cpu time spent up to now is        6.5 secs

     total energy              =    -108.61699766 Ry
     estimated scf accuracy    <       0.00261247 Ry

     iteration #  5     ecut=    60.00 Ry     beta= 0.40
     Davidson diagonalization with overlap

---- Real-time Memory Report at c_bands before calling an iterative solver
           396 MiB given to the printing process from OS
             0 MiB allocation reported by mallinfo(arena+hblkhd)
        325743 MiB available memory on the node where the printing process lives
------------------
     ethr =  1.04E-05,  avg # of iterations = 19.0

     negative rho (up, down):  4.388E-02 0.000E+00

     total cpu time spent up to now is        7.3 secs

     total energy              =    -108.61734525 Ry
     estimated scf accuracy    <       0.00018288 Ry

     iteration #  6     ecut=    60.00 Ry     beta= 0.40
     Davidson diagonalization with overlap

---- Real-time Memory Report at c_bands before calling an iterative solver
           399 MiB given to the printing process from OS
             0 MiB allocation reported by mallinfo(arena+hblkhd)
        325723 MiB available memory on the node where the printing process lives
------------------
     ethr =  7.32E-07,  avg # of iterations =  3.0

     negative rho (up, down):  4.384E-02 0.000E+00

     total cpu time spent up to now is        8.0 secs

     total energy              =    -108.61738811 Ry
     estimated scf accuracy    <       0.00014155 Ry

     iteration #  7     ecut=    60.00 Ry     beta= 0.40
     Davidson diagonalization with overlap

---- Real-time Memory Report at c_bands before calling an iterative solver
           400 MiB given to the printing process from OS
             0 MiB allocation reported by mallinfo(arena+hblkhd)
        325709 MiB available memory on the node where the printing process lives
------------------
     ethr =  5.66E-07,  avg # of iterations =  3.0

     negative rho (up, down):  4.380E-02 0.000E+00

     total cpu time spent up to now is        8.7 secs

     total energy              =    -108.61743023 Ry
     estimated scf accuracy    <       0.00002074 Ry

     iteration #  8     ecut=    60.00 Ry     beta= 0.40
     Davidson diagonalization with overlap

---- Real-time Memory Report at c_bands before calling an iterative solver
           401 MiB given to the printing process from OS
             0 MiB allocation reported by mallinfo(arena+hblkhd)
        325706 MiB available memory on the node where the printing process lives
------------------
     ethr =  8.30E-08,  avg # of iterations =  4.0

     negative rho (up, down):  4.374E-02 0.000E+00

     total cpu time spent up to now is        9.4 secs

     total energy              =    -108.61743827 Ry
     estimated scf accuracy    <       0.00000045 Ry

     iteration #  9     ecut=    60.00 Ry     beta= 0.40
     Davidson diagonalization with overlap

---- Real-time Memory Report at c_bands before calling an iterative solver
           401 MiB given to the printing process from OS
             0 MiB allocation reported by mallinfo(arena+hblkhd)
        325694 MiB available memory on the node where the printing process lives
------------------
     ethr =  1.81E-09,  avg # of iterations =  4.0

     negative rho (up, down):  4.370E-02 0.000E+00

     total cpu time spent up to now is       10.1 secs

     total energy              =    -108.61743820 Ry
     estimated scf accuracy    <       0.00000058 Ry

     iteration # 10     ecut=    60.00 Ry     beta= 0.40
     Davidson diagonalization with overlap

---- Real-time Memory Report at c_bands before calling an iterative solver
           401 MiB given to the printing process from OS
             0 MiB allocation reported by mallinfo(arena+hblkhd)
        325685 MiB available memory on the node where the printing process lives
------------------
     ethr =  1.81E-09,  avg # of iterations =  2.0

     negative rho (up, down):  4.369E-02 0.000E+00

     total cpu time spent up to now is       10.7 secs

     End of self-consistent calculation

          k = 0.0000 0.0000 0.0000 ( 95217 PWs)   bands (ev):

   -26.4072 -22.4295 -22.4268 -13.2465 -13.0026 -12.5776 -12.5770 -10.2088
   -10.2064  -8.4633  -8.4594  -7.0256  -2.6050  -0.4520  -0.2749   0.0976
     0.2309

     occupation numbers 
     1.0000   1.0000   1.0000   1.0000   1.0000   1.0000   1.0000   1.0000
     1.0000   1.0000   1.0000   1.0000   0.5000   0.0000   0.0000   0.0000
     0.0000

     the Fermi energy is    -2.5771 ev

!    total energy              =    -108.61743836 Ry
     estimated scf accuracy    <          4.6E-09 Ry
     smearing contrib. (-TS)   =      -0.00482420 Ry
     internal energy E=F+TS    =    -108.61261416 Ry

     The total energy is F=E-TS. E is the sum of the following terms:
     one-electron contribution =    -464.31896667 Ry
     hartree contribution      =     234.31359435 Ry
     xc contribution           =     -36.01747712 Ry
     ewald contribution        =     157.41067649 Ry
     Dispersion Correction     =      -0.00044121 Ry
     one-center paw contrib.   =       0.00000000 Ry
      -> PAW hartree energy AE =       0.00000000 Ry
      -> PAW hartree energy PS =       0.00000000 Ry
      -> PAW xc energy AE      =       0.00000000 Ry
      -> PAW xc energy PS      =       0.00000000 Ry
      -> total E_H with PAW    =     234.31359435 Ry
      -> total E_XC with PAW   =     -36.01747712 Ry

     convergence has been achieved in  10 iterations

     negative rho (up, down):  4.369E-02 0.000E+00

     Forces acting on atoms (cartesian axes, Ry/au):

     atom    1 type  3   force =     0.03363448   -0.34893719   -1.98250712
     atom    2 type  4   force =     0.85870667    2.15563285    0.31589897
     atom    3 type  4   force =    -2.23695131   -0.16601889    0.67348368
     atom    4 type  4   force =     1.34461016   -1.64067677    0.99312446
     The non-local contrib.  to forces
     atom    1 type  3   force =     0.01960478   -0.20561471   -1.16596584
     atom    2 type  4   force =     0.64899342    1.61946209    0.20879640
     atom    3 type  4   force =    -1.68573357   -0.13063752    0.47699691
     atom    4 type  4   force =     1.01464580   -1.24170122    0.71836993
     The ionic contribution  to forces
     atom    1 type  3   force =     0.11555836   -1.31421833   -7.83102301
     atom    2 type  4   force =     6.02150254   14.25372151   -0.04822411
     atom    3 type  4   force =   -15.54238789   -1.47607659    2.70681297
     atom    4 type  4   force =     9.40532699  -11.46342658    5.17243416
     The local contribution  to forces
     atom    1 type  3   force =    -0.09858970    1.13982278    6.83817180
     atom    2 type  4   force =    -5.77702354  -13.63026726    0.16901803
     atom    3 type  4   force =    14.90071606    1.43413786   -2.48222116
     atom    4 type  4   force =    -9.02096604   10.99831516   -4.85660986
     The core correction contribution to forces
     atom    1 type  3   force =    -0.00293775    0.03108490    0.17636937
     atom    2 type  4   force =    -0.03486554   -0.08754374   -0.01356923
     atom    3 type  4   force =     0.09072720    0.00660853   -0.02801524
     atom    4 type  4   force =    -0.05453596    0.06637416   -0.04099392
     The Hubbard contrib.    to forces
     atom    1 type  3   force =     0.00000000    0.00000000    0.00000000
     atom    2 type  4   force =     0.00000000    0.00000000    0.00000000
     atom    3 type  4   force =     0.00000000    0.00000000    0.00000000
     atom    4 type  4   force =     0.00000000    0.00000000    0.00000000
     The SCF correction term to forces
     atom    1 type  3   force =     0.00000001   -0.00000381   -0.00001557
     atom    2 type  4   force =     0.00003198    0.00007227   -0.00005616
     atom    3 type  4   force =    -0.00008957   -0.00002175   -0.00004997
     atom    4 type  4   force =     0.00003247   -0.00007008   -0.00005913

     Dispersion contribution to forces:
     atom    1 type  3   force =     0.00000129   -0.00000360   -0.00000229
     atom    2 type  4   force =     0.00007034    0.00019239   -0.00002436
     atom    3 type  4   force =    -0.00018103   -0.00002500    0.00000177
     atom    4 type  4   force =     0.00010941   -0.00016380    0.00002488

     Total force =     4.528613     Total SCF correction =     0.000174

     Total Dispersion Force =     0.000340


     Computing stress (Cartesian axis) and pressure


     negative rho (up, down):  4.369E-02 0.000E+00
          total   stress  (Ry/bohr**3)                   (kbar)     P=       38.04
   0.00035064   0.00000077   0.00000447           51.58        0.11        0.66
   0.00000077   0.00034254  -0.00004725            0.11       50.39       -6.95
   0.00000447  -0.00004725   0.00008257            0.66       -6.95       12.15

     kinetic stress (kbar)    174.55      0.00      0.03
                                0.00    174.53     -0.37
                                0.03     -0.37    172.52

     local   stress (kbar)  -2143.79     -1.34     -7.30
                               -1.34  -2271.84     72.65
                               -7.30     72.65   1330.10

     nonloc. stress (kbar)    157.67      0.04      0.21
                                0.04    157.28     -2.26
                                0.21     -2.26    144.82

     hartree stress (kbar)   1005.06      0.46      2.52
                                0.46   1068.70    -24.46
                                2.52    -24.46   -653.72

     exc-cor stress (kbar)     41.21      0.00      0.00
                                0.00     41.20     -0.04
                                0.00     -0.04     40.96

     corecor stress (kbar)    -93.48     -0.00     -0.02
                               -0.00    -93.44      0.23
                               -0.02      0.23    -92.20

     ewald   stress (kbar)    910.36      0.95      5.21
                                0.95    973.96    -52.69
                                5.21    -52.69   -930.34

     hubbard stress (kbar)      0.00      0.00      0.00
                                0.00      0.00      0.00
                                0.00      0.00      0.00

     DFT-D   stress (kbar)      0.00      0.00      0.00
                                0.00     -0.00     -0.00
                                0.00     -0.00      0.00

     XDM     stress (kbar)      0.00      0.00      0.00
                                0.00      0.00      0.00
                                0.00      0.00      0.00

     dft-nl  stress (kbar)      0.00      0.00      0.00
                                0.00      0.00      0.00
                                0.00      0.00      0.00

     TS-vdW  stress (kbar)      0.00      0.00      0.00
                                0.00      0.00      0.00
                                0.00      0.00      0.00


                                0.00      0.00      0.00
                                0.00      0.00      0.00


                                0.00      0.00      0.00


     BFGS Geometry Optimization
     Energy error            =      0.0E+00 Ry
     Gradient error          =      2.2E+00 Ry/Bohr

     number of scf cycles    =   1
     number of bfgs steps    =   0

     energy             new  =    -108.6174383572 Ry

     new trust radius        =       0.5000000000 bohr
     new conv_thr            =       0.0000000154 Ry


ATOMIC_POSITIONS (angstrom)
Si            5.0176394806        4.6062727053       20.0667983265
Cl            5.6222728278        6.1880486254       20.5868951701
Cl            3.4252453261        4.5405058644       20.8404093223
Cl            5.9668423654        3.4942228050       21.0671771811



     Writing output data file ./out/aiida.save/
     NEW-OLD atomic charge density approx. for the potential

     negative rho (up, down):  4.156E-02 0.000E+00

     total cpu time spent up to now is       18.4 secs

     Self-consistent Calculation

     iteration #  1     ecut=    60.00 Ry     beta= 0.40
     Davidson diagonalization with overlap

---- Real-time Memory Report at c_bands before calling an iterative solver
           475 MiB given to the printing process from OS
             0 MiB allocation reported by mallinfo(arena+hblkhd)
        324383 MiB available memory on the node where the printing process lives
------------------
     ethr =  1.00E-06,  avg # of iterations = 20.0

     negative rho (up, down):  4.256E-02 0.000E+00

     total cpu time spent up to now is       19.4 secs

     total energy              =    -110.76559417 Ry
     estimated scf accuracy    <       0.42597283 Ry

     iteration #  2     ecut=    60.00 Ry     beta= 0.40
     Davidson diagonalization with overlap

---- Real-time Memory Report at c_bands before calling an iterative solver
           479 MiB given to the printing process from OS
             0 MiB allocation reported by mallinfo(arena+hblkhd)
        324327 MiB available memory on the node where the printing process lives
------------------
     ethr =  1.70E-03,  avg # of iterations =  2.0

     negative rho (up, down):  4.285E-02 0.000E+00

     total cpu time spent up to now is       20.1 secs

     total energy              =    -110.85020366 Ry
     estimated scf accuracy    <       0.02563769 Ry

     iteration #  3     ecut=    60.00 Ry     beta= 0.40
     Davidson diagonalization with overlap

---- Real-time Memory Report at c_bands before calling an iterative solver
           479 MiB given to the printing process from OS
             0 MiB allocation reported by mallinfo(arena+hblkhd)
        324597 MiB available memory on the node where the printing process lives
------------------
     ethr =  1.03E-04,  avg # of iterations =  1.0

     negative rho (up, down):  4.365E-02 0.000E+00

     total cpu time spent up to now is       20.7 secs

     total energy              =    -110.84932770 Ry
     estimated scf accuracy    <       0.00737085 Ry

     iteration #  4     ecut=    60.00 Ry     beta= 0.40
     Davidson diagonalization with overlap

---- Real-time Memory Report at c_bands before calling an iterative solver
           479 MiB given to the printing process from OS
             0 MiB allocation reported by mallinfo(arena+hblkhd)
        324598 MiB available memory on the node where the printing process lives
------------------
     ethr =  2.95E-05,  avg # of iterations =  3.0

     negative rho (up, down):  4.345E-02 0.000E+00

     total cpu time spent up to now is       21.4 secs

     total energy              =    -110.85046845 Ry
     estimated scf accuracy    <       0.00110686 Ry

     iteration #  5     ecut=    60.00 Ry     beta= 0.40
     Davidson diagonalization with overlap

---- Real-time Memory Report at c_bands before calling an iterative solver
           479 MiB given to the printing process from OS
             0 MiB allocation reported by mallinfo(arena+hblkhd)
        324597 MiB available memory on the node where the printing process lives
------------------
     ethr =  4.43E-06,  avg # of iterations =  6.0

     negative rho (up, down):  4.334E-02 0.000E+00

     total cpu time spent up to now is       22.1 secs

     total energy              =    -110.85077668 Ry
     estimated scf accuracy    <       0.00030227 Ry

     iteration #  6     ecut=    60.00 Ry     beta= 0.40
     Davidson diagonalization with overlap

---- Real-time Memory Report at c_bands before calling an iterative solver
           479 MiB given to the printing process from OS
             0 MiB allocation reported by mallinfo(arena+hblkhd)
        324597 MiB available memory on the node where the printing process lives
------------------
     ethr =  1.21E-06,  avg # of iterations =  2.0

     negative rho (up, down):  4.327E-02 0.000E+00

     total cpu time spent up to now is       22.8 secs

     total energy              =    -110.85084455 Ry
     estimated scf accuracy    <       0.00001835 Ry

     iteration #  7     ecut=    60.00 Ry     beta= 0.40
     Davidson diagonalization with overlap

---- Real-time Memory Report at c_bands before calling an iterative solver
           479 MiB given to the printing process from OS
             0 MiB allocation reported by mallinfo(arena+hblkhd)
        324599 MiB available memory on the node where the printing process lives
------------------
     ethr =  7.34E-08,  avg # of iterations =  2.0

     negative rho (up, down):  4.320E-02 0.000E+00

     total cpu time spent up to now is       23.5 secs

     total energy              =    -110.85084716 Ry
     estimated scf accuracy    <       0.00000131 Ry

     iteration #  8     ecut=    60.00 Ry     beta= 0.40
     Davidson diagonalization with overlap

---- Real-time Memory Report at c_bands before calling an iterative solver
           479 MiB given to the printing process from OS
             0 MiB allocation reported by mallinfo(arena+hblkhd)
        324599 MiB available memory on the node where the printing process lives
------------------
     ethr =  5.25E-09,  avg # of iterations =  4.0

     negative rho (up, down):  4.315E-02 0.000E+00

     total cpu time spent up to now is       24.2 secs

     total energy              =    -110.85084733 Ry
     estimated scf accuracy    <       0.00000036 Ry

     iteration #  9     ecut=    60.00 Ry     beta= 0.40
     Davidson diagonalization with overlap

---- Real-time Memory Report at c_bands before calling an iterative solver
           479 MiB given to the printing process from OS
             0 MiB allocation reported by mallinfo(arena+hblkhd)
        324599 MiB available memory on the node where the printing process lives
------------------
     ethr =  1.42E-09,  avg # of iterations =  4.0

     negative rho (up, down):  4.314E-02 0.000E+00

     total cpu time spent up to now is       24.8 secs

     total energy              =    -110.85084749 Ry
     estimated scf accuracy    <       0.00000011 Ry

     iteration # 10     ecut=    60.00 Ry     beta= 0.40
     Davidson diagonalization with overlap

---- Real-time Memory Report at c_bands before calling an iterative solver
           479 MiB given to the printing process from OS
             0 MiB allocation reported by mallinfo(arena+hblkhd)
        324599 MiB available memory on the node where the printing process lives
------------------
     ethr =  4.50E-10,  avg # of iterations =  2.0

     negative rho (up, down):  4.312E-02 0.000E+00

     total cpu time spent up to now is       25.5 secs

     End of self-consistent calculation

          k = 0.0000 0.0000 0.0000 ( 95217 PWs)   bands (ev):

   -23.4595 -21.2804 -21.2780 -13.1828 -11.1218 -11.1198 -10.6938  -9.3358
    -9.3347  -7.9052  -7.8996  -7.3435  -4.3934  -0.3693  -0.0062   0.1048
     0.2615

     occupation numbers 
     1.0000   1.0000   1.0000   1.0000   1.0000   1.0000   1.0000   1.0000
     1.0000   1.0000   1.0000   1.0000   0.5000   0.0000   0.0000   0.0000
     0.0000

     the Fermi energy is    -4.3656 ev

!    total energy              =    -110.85084755 Ry
     estimated scf accuracy    <          5.0E-09 Ry
     smearing contrib. (-TS)   =      -0.00482420 Ry
     internal energy E=F+TS    =    -110.84602335 Ry

     The total energy is F=E-TS. E is the sum of the following terms:
     one-electron contribution =    -427.55532401 Ry
     hartree contribution      =     216.01918532 Ry
     xc contribution           =     -34.64030125 Ry
     ewald contribution        =     135.33154214 Ry
     Dispersion Correction     =      -0.00112556 Ry
     one-center paw contrib.   =       0.00000000 Ry
      -> PAW hartree energy AE =       0.00000000 Ry
      -> PAW hartree energy PS =       0.00000000 Ry
      -> PAW xc energy AE      =       0.00000000 Ry
      -> PAW xc energy PS      =       0.00000000 Ry
      -> total E_H with PAW    =     216.01918532 Ry
      -> total E_XC with PAW   =     -34.64030125 Ry

     convergence has been achieved in  10 iterations

     negative rho (up, down):  4.312E-02 0.000E+00

     Forces acting on atoms (cartesian axes, Ry/au):

     atom    1 type  3   force =     0.00680528   -0.06938277   -0.39396898
     atom    2 type  4   force =     0.15564400    0.39384267    0.06839125
     atom    3 type  4   force =    -0.40670262   -0.02817378    0.13366022
     atom    4 type  4   force =     0.24425335   -0.29628612    0.19191751
     The non-local contrib.  to forces
     atom    1 type  3   force =     0.00455081   -0.04896850   -0.27676570
     atom    2 type  4   force =     0.10017725    0.23671095   -0.01578298
     atom    3 type  4   force =    -0.25524195   -0.02849236    0.02388375
     atom    4 type  4   force =     0.15514883   -0.19669055    0.06071400
     The ionic contribution  to forces
     atom    1 type  3   force =     0.08741530   -1.08214089   -6.75704755
     atom    2 type  4   force =     3.87884145    9.05533505    0.38425486
     atom    3 type  4   force =   -10.03299860   -0.84503908    2.31898577
     atom    4 type  4   force =     6.06674184   -7.12815508    4.05380692
     The local contribution  to forces
     atom    1 type  3   force =    -0.08419539    1.05128746    6.58067846
     atom    2 type  4   force =    -3.81477874   -8.87655741   -0.29584056
     atom    3 type  4   force =     9.85918426    0.84388688   -2.20144887
     atom    4 type  4   force =    -5.96421931    7.01242864   -3.91163286
     The core correction contribution to forces
     atom    1 type  3   force =    -0.00096830    0.01044087    0.05914635
     atom    2 type  4   force =    -0.00894831   -0.02250985   -0.00415027
     atom    3 type  4   force =     0.02324676    0.00158417   -0.00781001
     atom    4 type  4   force =    -0.01396361    0.01686924   -0.01113831
     The Hubbard contrib.    to forces
     atom    1 type  3   force =     0.00000000    0.00000000    0.00000000
     atom    2 type  4   force =     0.00000000    0.00000000    0.00000000
     atom    3 type  4   force =     0.00000000    0.00000000    0.00000000
     atom    4 type  4   force =     0.00000000    0.00000000    0.00000000
     The SCF correction term to forces
     atom    1 type  3   force =     0.00000157    0.00000406    0.00003690
     atom    2 type  4   force =    -0.00000106   -0.00001131    0.00004480
     atom    3 type  4   force =     0.00001656    0.00000087    0.00004287
     atom    4 type  4   force =    -0.00000489    0.00000648    0.00003540

     Dispersion contribution to forces:
     atom    1 type  3   force =     0.00000240   -0.00000836   -0.00001420
     atom    2 type  4   force =     0.00035452    0.00087264   -0.00013135
     atom    3 type  4   force =    -0.00090852   -0.00011685    0.00000996
     atom    4 type  4   force =     0.00055160   -0.00074743    0.00013559

     Total force =     0.844055     Total SCF correction =     0.000083

     Total Dispersion Force =     0.001620


     Computing stress (Cartesian axis) and pressure


     negative rho (up, down):  4.312E-02 0.000E+00
          total   stress  (Ry/bohr**3)                   (kbar)     P=        8.63
   0.00007580   0.00000014   0.00000083           11.15        0.02        0.12
   0.00000014   0.00007454  -0.00000883            0.02       10.97       -1.30
   0.00000083  -0.00000883   0.00002576            0.12       -1.30        3.79

     kinetic stress (kbar)    155.80     -0.00     -0.00
                               -0.00    155.87      0.02
                               -0.00      0.02    155.91

     local   stress (kbar)  -2037.78     -1.31     -5.97
                               -1.31  -2163.55     55.58
                               -5.97     55.58   1357.20

     nonloc. stress (kbar)    140.56      0.01      0.05
                                0.01    140.49     -0.55
                                0.05     -0.55    137.47

     hartree stress (kbar)    965.81      0.54      2.33
                                0.54   1027.24    -21.16
                                2.33    -21.16   -683.89

     exc-cor stress (kbar)     42.51      0.00      0.00
                                0.00     42.50     -0.02
                                0.00     -0.02     42.36

     corecor stress (kbar)    -91.05     -0.00     -0.01
                               -0.00    -91.04      0.06
                               -0.01      0.06    -90.73

     ewald   stress (kbar)    835.26      0.79      3.72
                                0.79    899.43    -35.22
                                3.72    -35.22   -914.53

     hubbard stress (kbar)      0.00      0.00      0.00
                                0.00      0.00      0.00
                                0.00      0.00      0.00

     DFT-D   stress (kbar)      0.02      0.00      0.00
                                0.00      0.02     -0.00
                                0.00     -0.00      0.00

     XDM     stress (kbar)      0.00      0.00      0.00
                                0.00      0.00      0.00
                                0.00      0.00      0.00

     dft-nl  stress (kbar)      0.00      0.00      0.00
                                0.00      0.00      0.00
                                0.00      0.00      0.00

     TS-vdW  stress (kbar)      0.00      0.00      0.00
                                0.00      0.00      0.00
                                0.00      0.00      0.00


                                0.00      0.00      0.00
                                0.00      0.00      0.00


                                0.00      0.00      0.00

     Energy error            =      2.2E+00 Ry
     Gradient error          =      4.1E-01 Ry/Bohr

     number of scf cycles    =   2
     number of bfgs steps    =   1

     energy             old  =    -108.6174383572 Ry
     energy             new  =    -110.8508475514 Ry

     CASE: energy            _new < energy            _old

     new trust radius        =       0.1294354522 bohr
     new conv_thr            =       0.0000000154 Ry


ATOMIC_POSITIONS (angstrom)
Si            5.0188625855        4.5943756544       19.9993562612
Cl            5.6417303106        6.2389257815       20.6012929168
Cl            3.3737476697        4.5379911463       20.8632056923
Cl            5.9976594343        3.4577574177       21.0974251297



     Writing output data file ./out/aiida.save/
     NEW-OLD atomic charge density approx. for the potential

     negative rho (up, down):  4.433E-02 0.000E+00

     total cpu time spent up to now is       33.1 secs

     Self-consistent Calculation

     iteration #  1     ecut=    60.00 Ry     beta= 0.40
     Davidson diagonalization with overlap

---- Real-time Memory Report at c_bands before calling an iterative solver
           506 MiB given to the printing process from OS
             0 MiB allocation reported by mallinfo(arena+hblkhd)
        324266 MiB available memory on the node where the printing process lives
------------------
     c_bands:  3 eigenvalues not converged
     ethr =  1.00E-06,  avg # of iterations = 20.0

     negative rho (up, down):  4.408E-02 0.000E+00

     total cpu time spent up to now is       34.1 secs

     total energy              =    -110.99249566 Ry
     estimated scf accuracy    <       0.01715861 Ry

     iteration #  2     ecut=    60.00 Ry     beta= 0.40
     Davidson diagonalization with overlap

---- Real-time Memory Report at c_bands before calling an iterative solver
           506 MiB given to the printing process from OS
             0 MiB allocation reported by mallinfo(arena+hblkhd)
        324259 MiB available memory on the node where the printing process lives
------------------
     ethr =  6.86E-05,  avg # of iterations =  8.0

     negative rho (up, down):  4.390E-02 0.000E+00

     total cpu time spent up to now is       34.8 secs

     total energy              =    -110.99634406 Ry
     estimated scf accuracy    <       0.00097383 Ry

     iteration #  3     ecut=    60.00 Ry     beta= 0.40
     Davidson diagonalization with overlap

---- Real-time Memory Report at c_bands before calling an iterative solver
           506 MiB given to the printing process from OS
             0 MiB allocation reported by mallinfo(arena+hblkhd)
        324259 MiB available memory on the node where the printing process lives
------------------
     c_bands:  2 eigenvalues not converged
     ethr =  3.90E-06,  avg # of iterations = 20.0

     negative rho (up, down):  4.386E-02 0.000E+00

     total cpu time spent up to now is       35.6 secs

     total energy              =    -110.99632606 Ry
     estimated scf accuracy    <       0.00024378 Ry

     iteration #  4     ecut=    60.00 Ry     beta= 0.40
     Davidson diagonalization with overlap

---- Real-time Memory Report at c_bands before calling an iterative solver
           506 MiB given to the printing process from OS
             0 MiB allocation reported by mallinfo(arena+hblkhd)
        324261 MiB available memory on the node where the printing process lives
------------------
     ethr =  9.75E-07,  avg # of iterations =  2.0

     negative rho (up, down):  4.381E-02 0.000E+00

     total cpu time spent up to now is       36.3 secs

     total energy              =    -110.99635383 Ry
     estimated scf accuracy    <       0.00003483 Ry

     iteration #  5     ecut=    60.00 Ry     beta= 0.40
     Davidson diagonalization with overlap

---- Real-time Memory Report at c_bands before calling an iterative solver
           506 MiB given to the printing process from OS
             0 MiB allocation reported by mallinfo(arena+hblkhd)
        324261 MiB available memory on the node where the printing process lives
------------------
     ethr =  1.39E-07,  avg # of iterations =  2.0

     negative rho (up, down):  4.374E-02 0.000E+00

     total cpu time spent up to now is       36.9 secs

     total energy              =    -110.99636013 Ry
     estimated scf accuracy    <       0.00000154 Ry

     iteration #  6     ecut=    60.00 Ry     beta= 0.40
     Davidson diagonalization with overlap

---- Real-time Memory Report at c_bands before calling an iterative solver
           506 MiB given to the printing process from OS
             0 MiB allocation reported by mallinfo(arena+hblkhd)
        324261 MiB available memory on the node where the printing process lives
------------------
     ethr =  6.18E-09,  avg # of iterations =  2.0

     negative rho (up, down):  4.369E-02 0.000E+00

     total cpu time spent up to now is       37.6 secs

     total energy              =    -110.99636041 Ry
     estimated scf accuracy    <       0.00000020 Ry

     iteration #  7     ecut=    60.00 Ry     beta= 0.40
     Davidson diagonalization with overlap

---- Real-time Memory Report at c_bands before calling an iterative solver
           506 MiB given to the printing process from OS
             0 MiB allocation reported by mallinfo(arena+hblkhd)
        324261 MiB available memory on the node where the printing process lives
------------------
     ethr =  8.09E-10,  avg # of iterations =  4.0

     negative rho (up, down):  4.365E-02 0.000E+00

     total cpu time spent up to now is       38.3 secs

     total energy              =    -110.99636048 Ry
     estimated scf accuracy    <       0.00000009 Ry

     iteration #  8     ecut=    60.00 Ry     beta= 0.40
     Davidson diagonalization with overlap

---- Real-time Memory Report at c_bands before calling an iterative solver
           506 MiB given to the printing process from OS
             0 MiB allocation reported by mallinfo(arena+hblkhd)
        324261 MiB available memory on the node where the printing process lives
------------------
     ethr =  3.76E-10,  avg # of iterations =  2.0

     negative rho (up, down):  4.363E-02 0.000E+00

     total cpu time spent up to now is       38.9 secs

     End of self-consistent calculation

          k = 0.0000 0.0000 0.0000 ( 95217 PWs)   bands (ev):

   -22.8446 -20.9830 -20.9802 -13.1528 -10.8503 -10.8477 -10.2812  -9.0876
    -9.0863  -7.7563  -7.7502  -7.3251  -4.9644  -0.3593  -0.1652  -0.1090
     0.0097

     occupation numbers 
     1.0000   1.0000   1.0000   1.0000   1.0000   1.0000   1.0000   1.0000
     1.0000   1.0000   1.0000   1.0000   0.5000   0.0000   0.0000   0.0000
     0.0000

     the Fermi energy is    -4.9366 ev

!    total energy              =    -110.99636056 Ry
     estimated scf accuracy    <          7.6E-09 Ry
     smearing contrib. (-TS)   =      -0.00482420 Ry
     internal energy E=F+TS    =    -110.99153636 Ry

     The total energy is F=E-TS. E is the sum of the following terms:
     one-electron contribution =    -420.59433858 Ry
     hartree contribution      =     212.59457812 Ry
     xc contribution           =     -34.40442670 Ry
     ewald contribution        =     131.41409795 Ry
     Dispersion Correction     =      -0.00144715 Ry
     one-center paw contrib.   =       0.00000000 Ry
      -> PAW hartree energy AE =       0.00000000 Ry
      -> PAW hartree energy PS =       0.00000000 Ry
      -> PAW xc energy AE      =       0.00000000 Ry
      -> PAW xc energy PS      =       0.00000000 Ry
      -> total E_H with PAW    =     212.59457812 Ry
      -> total E_XC with PAW   =     -34.40442670 Ry

     convergence has been achieved in   8 iterations

     negative rho (up, down):  4.363E-02 0.000E+00

     Forces acting on atoms (cartesian axes, Ry/au):

     atom    1 type  3   force =     0.00354099   -0.03558340   -0.20047945
     atom    2 type  4   force =     0.09384261    0.23513577    0.02884512
     atom    3 type  4   force =    -0.24464819   -0.01909179    0.06824835
     atom    4 type  4   force =     0.14726459   -0.18046057    0.10338598
     The non-local contrib.  to forces
     atom    1 type  3   force =     0.00236471   -0.02599815   -0.14593073
     atom    2 type  4   force =     0.04015586    0.07990967   -0.06552619
     atom    3 type  4   force =    -0.09711394   -0.02153112   -0.05103804
     atom    4 type  4   force =     0.06071581   -0.08557056   -0.03687350
     The ionic contribution  to forces
     atom    1 type  3   force =     0.08240677   -1.03914513   -6.57964049
     atom    2 type  4   force =     3.53560103    8.21729783    0.44758131
     atom    3 type  4   force =    -9.15087069   -0.74587704    2.25513767
     atom    4 type  4   force =     5.53286289   -6.43227566    3.87692151
     The local contribution  to forces
     atom    1 type  3   force =    -0.08059028    1.02258902    6.48573280
     atom    2 type  4   force =    -3.47658237   -8.04886084   -0.35106346
     atom    3 type  4   force =     8.98960217    0.74730946   -2.13158263
     atom    4 type  4   force =    -5.43804610    6.32738560   -3.73042870
     The core correction contribution to forces
     atom    1 type  3   force =    -0.00063921    0.00696935    0.03932792
     atom    2 type  4   force =    -0.00573518   -0.01422460   -0.00195993
     atom    3 type  4   force =     0.01481614    0.00113458   -0.00427399
     atom    4 type  4   force =    -0.00891841    0.01086669   -0.00639478
     The Hubbard contrib.    to forces
     atom    1 type  3   force =     0.00000000    0.00000000    0.00000000
     atom    2 type  4   force =     0.00000000    0.00000000    0.00000000
     atom    3 type  4   force =     0.00000000    0.00000000    0.00000000
     atom    4 type  4   force =     0.00000000    0.00000000    0.00000000
     The SCF correction term to forces
     atom    1 type  3   force =    -0.00000309    0.00001236    0.00004803
     atom    2 type  4   force =    -0.00007237   -0.00014888   -0.00001378
     atom    3 type  4   force =     0.00013963    0.00002873   -0.00001305
     atom    4 type  4   force =    -0.00009072    0.00013056   -0.00002704

     Dispersion contribution to forces:
     atom    1 type  3   force =     0.00000275   -0.00001038   -0.00002124
     atom    2 type  4   force =     0.00047631    0.00116305   -0.00017709
     atom    3 type  4   force =    -0.00122083   -0.00015593    0.00001411
     atom    4 type  4   force =     0.00074178   -0.00099674    0.00018423

     Total force =     0.486019     Total SCF correction =     0.000277

     Total Dispersion Force =     0.002169


     Computing stress (Cartesian axis) and pressure


     negative rho (up, down):  4.363E-02 0.000E+00
          total   stress  (Ry/bohr**3)                   (kbar)     P=        5.31
   0.00004711   0.00000010   0.00000053            6.93        0.02        0.08
   0.00000010   0.00004643  -0.00000569            0.02        6.83       -0.84
   0.00000053  -0.00000569   0.00001477            0.08       -0.84        2.17

     kinetic stress (kbar)    153.40      0.00      0.01
                                0.00    153.44     -0.16
                                0.01     -0.16    152.51

     local   stress (kbar)  -2015.88     -1.32     -5.66
                               -1.32  -2141.18     51.49
                               -5.66     51.49   1358.32

     nonloc. stress (kbar)    138.83      0.01      0.04
                                0.01    138.78     -0.39
                                0.04     -0.39    136.64

     hartree stress (kbar)    957.68      0.56      2.27
                                0.56   1018.64    -20.17
                                2.27    -20.17   -687.91

     exc-cor stress (kbar)     42.79      0.00      0.00
                                0.00     42.79     -0.02
                                0.00     -0.02     42.67

     corecor stress (kbar)    -90.76     -0.00     -0.00
                               -0.00    -90.76      0.04
                               -0.00      0.04    -90.55

     ewald   stress (kbar)    820.84      0.77      3.42
                                0.77    885.09    -31.62
                                3.42    -31.62   -909.51

     hubbard stress (kbar)      0.00      0.00      0.00
                                0.00      0.00      0.00
                                0.00      0.00      0.00

     DFT-D   stress (kbar)      0.03      0.00      0.00
                                0.00      0.03     -0.01
                                0.00     -0.01      0.00

     XDM     stress (kbar)      0.00      0.00      0.00
                                0.00      0.00      0.00
                                0.00      0.00      0.00

     dft-nl  stress (kbar)      0.00      0.00      0.00
                                0.00      0.00      0.00
                                0.00      0.00      0.00

     TS-vdW  stress (kbar)      0.00      0.00      0.00
                                0.00      0.00      0.00
                                0.00      0.00      0.00


                                0.00      0.00      0.00
                                0.00      0.00      0.00


                                0.00      0.00      0.00

     Energy error            =      1.5E-01 Ry
     Gradient error          =      2.4E-01 Ry/Bohr

     number of scf cycles    =   3
     number of bfgs steps    =   2

     energy             old  =    -110.8508475514 Ry
     energy             new  =    -110.9963605610 Ry

     CASE: energy            _new < energy            _old

     new trust radius        =       0.1423789974 bohr
     new conv_thr            =       0.0000000154 Ry


ATOMIC_POSITIONS (angstrom)
Si            5.0199212457        4.5848263691       19.9469519952
Cl            5.6695113800        6.3087007539       20.6072287340
Cl            3.3009756217        4.5319135640       20.8811327604
Cl            6.0415917526        3.4036093130       21.1259665104



     Writing output data file ./out/aiida.save/
     NEW-OLD atomic charge density approx. for the potential

     negative rho (up, down):  4.535E-02 0.000E+00

     total cpu time spent up to now is       46.6 secs

     Self-consistent Calculation

     iteration #  1     ecut=    60.00 Ry     beta= 0.40
     Davidson diagonalization with overlap

---- Real-time Memory Report at c_bands before calling an iterative solver
           531 MiB given to the printing process from OS
             0 MiB allocation reported by mallinfo(arena+hblkhd)
        324253 MiB available memory on the node where the printing process lives
------------------
     ethr =  1.00E-06,  avg # of iterations = 14.0

     negative rho (up, down):  4.497E-02 0.000E+00

     total cpu time spent up to now is       47.5 secs

     total energy              =    -111.08199487 Ry
     estimated scf accuracy    <       0.01679553 Ry

     iteration #  2     ecut=    60.00 Ry     beta= 0.40
     Davidson diagonalization with overlap

---- Real-time Memory Report at c_bands before calling an iterative solver
           531 MiB given to the printing process from OS
             0 MiB allocation reported by mallinfo(arena+hblkhd)
        324243 MiB available memory on the node where the printing process lives
------------------
     ethr =  6.72E-05,  avg # of iterations =  2.0

     negative rho (up, down):  4.474E-02 0.000E+00

     total cpu time spent up to now is       48.1 secs

     total energy              =    -111.08581504 Ry
     estimated scf accuracy    <       0.00116814 Ry

     iteration #  3     ecut=    60.00 Ry     beta= 0.40
     Davidson diagonalization with overlap

---- Real-time Memory Report at c_bands before calling an iterative solver
           531 MiB given to the printing process from OS
             0 MiB allocation reported by mallinfo(arena+hblkhd)
        324244 MiB available memory on the node where the printing process lives
------------------
     ethr =  4.67E-06,  avg # of iterations =  8.0

     negative rho (up, down):  4.459E-02 0.000E+00

     total cpu time spent up to now is       48.8 secs

     total energy              =    -111.08586030 Ry
     estimated scf accuracy    <       0.00021720 Ry

     iteration #  4     ecut=    60.00 Ry     beta= 0.40
     Davidson diagonalization with overlap

---- Real-time Memory Report at c_bands before calling an iterative solver
           531 MiB given to the printing process from OS
             0 MiB allocation reported by mallinfo(arena+hblkhd)
        324244 MiB available memory on the node where the printing process lives
------------------
     ethr =  8.69E-07,  avg # of iterations =  2.0

     negative rho (up, down):  4.458E-02 0.000E+00

     total cpu time spent up to now is       49.5 secs

     total energy              =    -111.08588191 Ry
     estimated scf accuracy    <       0.00002893 Ry

     iteration #  5     ecut=    60.00 Ry     beta= 0.40
     Davidson diagonalization with overlap

---- Real-time Memory Report at c_bands before calling an iterative solver
           531 MiB given to the printing process from OS
             0 MiB allocation reported by mallinfo(arena+hblkhd)
        324243 MiB available memory on the node where the printing process lives
------------------
     ethr =  1.16E-07,  avg # of iterations =  2.0

     negative rho (up, down):  4.449E-02 0.000E+00

     total cpu time spent up to now is       50.2 secs

     total energy              =    -111.08588604 Ry
     estimated scf accuracy    <       0.00000156 Ry

     iteration #  6     ecut=    60.00 Ry     beta= 0.40
     Davidson diagonalization with overlap

---- Real-time Memory Report at c_bands before calling an iterative solver
           531 MiB given to the printing process from OS
             0 MiB allocation reported by mallinfo(arena+hblkhd)
        324243 MiB available memory on the node where the printing process lives
------------------
     ethr =  6.22E-09,  avg # of iterations =  2.0

     negative rho (up, down):  4.442E-02 0.000E+00

     total cpu time spent up to now is       50.8 secs

     total energy              =    -111.08588625 Ry
     estimated scf accuracy    <       0.00000013 Ry

     iteration #  7     ecut=    60.00 Ry     beta= 0.40
     Davidson diagonalization with overlap

---- Real-time Memory Report at c_bands before calling an iterative solver
           531 MiB given to the printing process from OS
             0 MiB allocation reported by mallinfo(arena+hblkhd)
        324243 MiB available memory on the node where the printing process lives
------------------
     ethr =  5.14E-10,  avg # of iterations =  4.0

     negative rho (up, down):  4.437E-02 0.000E+00

     total cpu time spent up to now is       51.5 secs

     total energy              =    -111.08588631 Ry
     estimated scf accuracy    <       0.00000003 Ry

     iteration #  8     ecut=    60.00 Ry     beta= 0.40
     Davidson diagonalization with overlap

---- Real-time Memory Report at c_bands before calling an iterative solver
           531 MiB given to the printing process from OS
             0 MiB allocation reported by mallinfo(arena+hblkhd)
        324245 MiB available memory on the node where the printing process lives
------------------
     ethr =  1.32E-10,  avg # of iterations =  2.0

     negative rho (up, down):  4.434E-02 0.000E+00

     total cpu time spent up to now is       52.2 secs

     End of self-consistent calculation

          k = 0.0000 0.0000 0.0000 ( 95217 PWs)   bands (ev):

   -22.1979 -20.7235 -20.7207 -13.1089 -10.5730 -10.5698  -9.8505  -8.8327
    -8.8304  -7.6968  -7.6903  -7.3605  -5.4666  -0.5949  -0.5488  -0.3673
    -0.0390

     occupation numbers 
     1.0000   1.0000   1.0000   1.0000   1.0000   1.0000   1.0000   1.0000
     1.0000   1.0000   1.0000   1.0000   0.5000   0.0000   0.0000   0.0000
     0.0000

     the Fermi energy is    -5.4388 ev

!    total energy              =    -111.08588639 Ry
     estimated scf accuracy    <          1.7E-09 Ry
     smearing contrib. (-TS)   =      -0.00482420 Ry
     internal energy E=F+TS    =    -111.08106219 Ry

     The total energy is F=E-TS. E is the sum of the following terms:
     one-electron contribution =    -412.55940180 Ry
     hartree contribution      =     208.61863628 Ry
     xc contribution           =     -34.17004653 Ry
     ewald contribution        =     127.03182411 Ry
     Dispersion Correction     =      -0.00207425 Ry
     one-center paw contrib.   =       0.00000000 Ry
      -> PAW hartree energy AE =       0.00000000 Ry
      -> PAW hartree energy PS =       0.00000000 Ry
      -> PAW xc energy AE      =       0.00000000 Ry
      -> PAW xc energy PS      =       0.00000000 Ry
      -> total E_H with PAW    =     208.61863628 Ry
      -> total E_XC with PAW   =     -34.17004653 Ry

     convergence has been achieved in   8 iterations

     negative rho (up, down):  4.434E-02 0.000E+00

     Forces acting on atoms (cartesian axes, Ry/au):

     atom    1 type  3   force =     0.00083312   -0.00771440   -0.04346807
     atom    2 type  4   force =     0.04530926    0.11001852   -0.00404861
     atom    3 type  4   force =    -0.11750688   -0.01228190    0.01517843
     atom    4 type  4   force =     0.07136450   -0.09002222    0.03233825
     The non-local contrib.  to forces
     atom    1 type  3   force =     0.00023153   -0.00345909   -0.01945929
     atom    2 type  4   force =    -0.01058129   -0.05196068   -0.10261262
     atom    3 type  4   force =     0.03629037   -0.01483340   -0.10931860
     atom    4 type  4   force =    -0.01893775    0.00902555   -0.11414154
     The ionic contribution  to forces
     atom    1 type  3   force =     0.07264400   -0.95333112   -6.15113277
     atom    2 type  4   force =     3.17081248    7.30536436    0.42799876
     atom    3 type  4   force =    -8.21167660   -0.65251973    2.10740796
     atom    4 type  4   force =     4.96822012   -5.69951350    3.61572605
     The local contribution  to forces
     atom    1 type  3   force =    -0.07174075    0.94570412    6.10797448
     atom    2 type  4   force =    -3.11256857   -7.13785851   -0.32932359
     atom    3 type  4   force =     8.05192299    0.65448867   -1.98189292
     atom    4 type  4   force =    -4.87430425    5.59602839   -3.46736638
     The core correction contribution to forces
     atom    1 type  3   force =    -0.00030307    0.00337932    0.01913569
     atom    2 type  4   force =    -0.00299854   -0.00711906    0.00008139
     atom    3 type  4   force =     0.00763340    0.00078249   -0.00109289
     atom    4 type  4   force =    -0.00463288    0.00579131   -0.00219476
     The Hubbard contrib.    to forces
     atom    1 type  3   force =     0.00000000    0.00000000    0.00000000
     atom    2 type  4   force =     0.00000000    0.00000000    0.00000000
     atom    3 type  4   force =     0.00000000    0.00000000    0.00000000
     atom    4 type  4   force =     0.00000000    0.00000000    0.00000000
     The SCF correction term to forces
     atom    1 type  3   force =    -0.00000162    0.00000481    0.00003381
     atom    2 type  4   force =    -0.00002293   -0.00002928    0.00004518
     atom    3 type  4   force =     0.00003633    0.00001718    0.00004266
     atom    4 type  4   force =    -0.00002192    0.00003527    0.00004241

     Dispersion contribution to forces:
     atom    1 type  3   force =     0.00000329   -0.00001316   -0.00003173
     atom    2 type  4   force =     0.00066837    0.00162096   -0.00024947
     atom    3 type  4   force =    -0.00171311   -0.00021784    0.00002048
     atom    4 type  4   force =     0.00104145   -0.00138997    0.00026072

     Total force =     0.211080     Total SCF correction =     0.000107

     Total Dispersion Force =     0.003034


     Computing stress (Cartesian axis) and pressure


     negative rho (up, down):  4.434E-02 0.000E+00
          total   stress  (Ry/bohr**3)                   (kbar)     P=        2.50
   0.00002370   0.00000005   0.00000033            3.49        0.01        0.05
   0.00000005   0.00002341  -0.00000350            0.01        3.44       -0.52
   0.00000033  -0.00000350   0.00000385            0.05       -0.52        0.57

     kinetic stress (kbar)    150.84      0.01      0.02
                                0.01    150.87     -0.19
                                0.02     -0.19    149.73

     local   stress (kbar)  -1993.77     -1.38     -5.42
                               -1.38  -2118.13     47.82
                               -5.42     47.82   1365.03

     nonloc. stress (kbar)    137.53      0.00      0.03
                                0.00    137.50     -0.29
                                0.03     -0.29    135.87

     hartree stress (kbar)    948.90      0.61      2.22
                                0.61   1009.18    -19.15
                                2.22    -19.15   -693.77

     exc-cor stress (kbar)     43.11      0.00      0.00
                                0.00     43.10     -0.02
                                0.00     -0.02     43.00

     corecor stress (kbar)    -90.53     -0.00     -0.00
                               -0.00    -90.53      0.03
                               -0.00      0.03    -90.38

     ewald   stress (kbar)    807.37      0.77      3.21
                                0.77    871.41    -28.70
                                3.21    -28.70   -908.91

     hubbard stress (kbar)      0.00      0.00      0.00
                                0.00      0.00      0.00
                                0.00      0.00      0.00

     DFT-D   stress (kbar)      0.05      0.00      0.00
                                0.00      0.04     -0.01
                                0.00     -0.01      0.00

     XDM     stress (kbar)      0.00      0.00      0.00
                                0.00      0.00      0.00
                                0.00      0.00      0.00

     dft-nl  stress (kbar)      0.00      0.00      0.00
                                0.00      0.00      0.00
                                0.00      0.00      0.00

     TS-vdW  stress (kbar)      0.00      0.00      0.00
                                0.00      0.00      0.00
                                0.00      0.00      0.00


                                0.00      0.00      0.00
                                0.00      0.00      0.00


                                0.00      0.00      0.00

     Energy error            =      9.0E-02 Ry
     Gradient error          =      1.2E-01 Ry/Bohr

     number of scf cycles    =   4
     number of bfgs steps    =   3

     energy             old  =    -110.9963605610 Ry
     energy             new  =    -111.0858863859 Ry

     CASE: energy            _new < energy            _old

     new trust radius        =       0.1378486285 bohr
     new conv_thr            =       0.0000000154 Ry


ATOMIC_POSITIONS (angstrom)
Si            5.0201900176        4.5835821298       19.9409910232
Cl            5.6972865165        6.3752765042       20.5975606526
Cl            3.2288342975        4.5231739504       20.8835729751
Cl            6.0856891683        3.3470174157       21.1391553491



     Writing output data file ./out/aiida.save/
     NEW-OLD atomic charge density approx. for the potential

     negative rho (up, down):  4.512E-02 0.000E+00

     total cpu time spent up to now is       59.8 secs

     Self-consistent Calculation

     iteration #  1     ecut=    60.00 Ry     beta= 0.40
     Davidson diagonalization with overlap

---- Real-time Memory Report at c_bands before calling an iterative solver
           546 MiB given to the printing process from OS
             0 MiB allocation reported by mallinfo(arena+hblkhd)
        324240 MiB available memory on the node where the printing process lives
------------------
     ethr =  1.00E-06,  avg # of iterations = 20.0

     negative rho (up, down):  4.475E-02 0.000E+00

     total cpu time spent up to now is       60.8 secs

     total energy              =    -111.11848726 Ry
     estimated scf accuracy    <       0.00710353 Ry

     iteration #  2     ecut=    60.00 Ry     beta= 0.40
     Davidson diagonalization with overlap

---- Real-time Memory Report at c_bands before calling an iterative solver
           546 MiB given to the printing process from OS
             0 MiB allocation reported by mallinfo(arena+hblkhd)
        324230 MiB available memory on the node where the printing process lives
------------------
     ethr =  2.84E-05,  avg # of iterations =  2.0

     negative rho (up, down):  4.454E-02 0.000E+00

     total cpu time spent up to now is       61.4 secs

     total energy              =    -111.12003697 Ry
     estimated scf accuracy    <       0.00056435 Ry

     iteration #  3     ecut=    60.00 Ry     beta= 0.40
     Davidson diagonalization with overlap

---- Real-time Memory Report at c_bands before calling an iterative solver
           546 MiB given to the printing process from OS
             0 MiB allocation reported by mallinfo(arena+hblkhd)
        324230 MiB available memory on the node where the printing process lives
------------------
     ethr =  2.26E-06,  avg # of iterations =  8.0

     negative rho (up, down):  4.437E-02 0.000E+00

     total cpu time spent up to now is       62.1 secs

     total energy              =    -111.12007796 Ry
     estimated scf accuracy    <       0.00009163 Ry

     iteration #  4     ecut=    60.00 Ry     beta= 0.40
     Davidson diagonalization with overlap

---- Real-time Memory Report at c_bands before calling an iterative solver
           546 MiB given to the printing process from OS
             0 MiB allocation reported by mallinfo(arena+hblkhd)
        324230 MiB available memory on the node where the printing process lives
------------------
     ethr =  3.67E-07,  avg # of iterations =  2.0

     negative rho (up, down):  4.438E-02 0.000E+00

     total cpu time spent up to now is       62.8 secs

     total energy              =    -111.12008446 Ry
     estimated scf accuracy    <       0.00001297 Ry

     iteration #  5     ecut=    60.00 Ry     beta= 0.40
     Davidson diagonalization with overlap

---- Real-time Memory Report at c_bands before calling an iterative solver
           546 MiB given to the printing process from OS
             0 MiB allocation reported by mallinfo(arena+hblkhd)
        324230 MiB available memory on the node where the printing process lives
------------------
     ethr =  5.19E-08,  avg # of iterations =  2.0

     negative rho (up, down):  4.429E-02 0.000E+00

     total cpu time spent up to now is       63.5 secs

     total energy              =    -111.12008624 Ry
     estimated scf accuracy    <       0.00000079 Ry

     iteration #  6     ecut=    60.00 Ry     beta= 0.40
     Davidson diagonalization with overlap

---- Real-time Memory Report at c_bands before calling an iterative solver
           546 MiB given to the printing process from OS
             0 MiB allocation reported by mallinfo(arena+hblkhd)
        324230 MiB available memory on the node where the printing process lives
------------------
     ethr =  3.17E-09,  avg # of iterations =  4.0

     negative rho (up, down):  4.422E-02 0.000E+00

     total cpu time spent up to now is       64.1 secs

     total energy              =    -111.12008632 Ry
     estimated scf accuracy    <       0.00000008 Ry

     iteration #  7     ecut=    60.00 Ry     beta= 0.40
     Davidson diagonalization with overlap

---- Real-time Memory Report at c_bands before calling an iterative solver
           546 MiB given to the printing process from OS
             0 MiB allocation reported by mallinfo(arena+hblkhd)
        324231 MiB available memory on the node where the printing process lives
------------------
     ethr =  3.39E-10,  avg # of iterations =  2.0

     negative rho (up, down):  4.414E-02 0.000E+00

     total cpu time spent up to now is       64.8 secs

     End of self-consistent calculation

          k = 0.0000 0.0000 0.0000 ( 95217 PWs)   bands (ev):

   -21.7913 -20.6133 -20.6096 -13.0807 -10.4177 -10.4139  -9.5638  -8.6825
    -8.6790  -7.7524  -7.7457  -7.4500  -5.6844  -0.8431  -0.7994  -0.3860
    -0.2141

     occupation numbers 
     1.0000   1.0000   1.0000   1.0000   1.0000   1.0000   1.0000   1.0000
     1.0000   1.0000   1.0000   1.0000   0.5000   0.0000   0.0000   0.0000
     0.0000

     the Fermi energy is    -5.6565 ev

!    total energy              =    -111.12008643 Ry
     estimated scf accuracy    <          6.2E-09 Ry
     smearing contrib. (-TS)   =      -0.00482420 Ry
     internal energy E=F+TS    =    -111.11526223 Ry

     The total energy is F=E-TS. E is the sum of the following terms:
     one-electron contribution =    -406.40970533 Ry
     hartree contribution      =     205.54284351 Ry
     xc contribution           =     -34.02261142 Ry
     ewald contribution        =     123.77708444 Ry
     Dispersion Correction     =      -0.00287344 Ry
     one-center paw contrib.   =       0.00000000 Ry
      -> PAW hartree energy AE =       0.00000000 Ry
      -> PAW hartree energy PS =       0.00000000 Ry
      -> PAW xc energy AE      =       0.00000000 Ry
      -> PAW xc energy PS      =       0.00000000 Ry
      -> total E_H with PAW    =     205.54284351 Ry
      -> total E_XC with PAW   =     -34.02261142 Ry

     convergence has been achieved in   7 iterations

     negative rho (up, down):  4.414E-02 0.000E+00

     Forces acting on atoms (cartesian axes, Ry/au):

     atom    1 type  3   force =    -0.00040466    0.00448807    0.02654671
     atom    2 type  4   force =     0.01949068    0.04435691   -0.01694302
     atom    3 type  4   force =    -0.04987084   -0.00788392   -0.00854565
     atom    4 type  4   force =     0.03078481   -0.04096106   -0.00105804
     The non-local contrib.  to forces
     atom    1 type  3   force =    -0.00107414    0.01028013    0.05888502
     atom    2 type  4   force =    -0.04061270   -0.12698945   -0.10886992
     atom    3 type  4   force =     0.11481167   -0.00820096   -0.12827416
     atom    4 type  4   force =    -0.06629696    0.06773498   -0.14441225
     The ionic contribution  to forces
     atom    1 type  3   force =     0.06165420   -0.86128292   -5.63586180
     atom    2 type  4   force =     2.91086881    6.63547112    0.33688578
     atom    3 type  4   force =    -7.53834161   -0.59627936    1.93256574
     atom    4 type  4   force =     4.56581860   -5.17790884    3.36641029
     The local contribution  to forces
     atom    1 type  3   force =    -0.06089879    0.85439312    5.59736562
     atom    2 type  4   force =    -2.85014421   -6.46295959   -0.24563820
     atom    3 type  4   force =     7.37219098    0.59633696   -1.81332247
     atom    4 type  4   force =    -4.46782615    5.06808143   -3.22330746
     The core correction contribution to forces
     atom    1 type  3   force =    -0.00008989    0.00111702    0.00620137
     atom    2 type  4   force =    -0.00144989   -0.00314773    0.00095467
     atom    3 type  4   force =     0.00356402    0.00053554    0.00043479
     atom    4 type  4   force =    -0.00219270    0.00285562   -0.00008304
     The Hubbard contrib.    to forces
     atom    1 type  3   force =     0.00000000    0.00000000    0.00000000
     atom    2 type  4   force =     0.00000000    0.00000000    0.00000000
     atom    3 type  4   force =     0.00000000    0.00000000    0.00000000
     atom    4 type  4   force =     0.00000000    0.00000000    0.00000000
     The SCF correction term to forces
     atom    1 type  3   force =     0.00000018   -0.00000491   -0.00000682
     atom    2 type  4   force =     0.00004447    0.00008381    0.00001330
     atom    3 type  4   force =    -0.00008678   -0.00002156    0.00002213
     atom    4 type  4   force =     0.00006109   -0.00009795    0.00002428

     Dispersion contribution to forces:
     atom    1 type  3   force =     0.00000385   -0.00001526   -0.00003996
     atom    2 type  4   force =     0.00078425    0.00189787   -0.00029194
     atom    3 type  4   force =    -0.00200908   -0.00025543    0.00002505
     atom    4 type  4   force =     0.00122098   -0.00162718    0.00030685

     Total force =     0.092782     Total SCF correction =     0.000178

     Total Dispersion Force =     0.003555


     Computing stress (Cartesian axis) and pressure


     negative rho (up, down):  4.414E-02 0.000E+00
          total   stress  (Ry/bohr**3)                   (kbar)     P=        0.95
   0.00001054   0.00000005   0.00000021            1.55        0.01        0.03
   0.00000005   0.00001050  -0.00000213            0.01        1.54       -0.31
   0.00000021  -0.00000213  -0.00000161            0.03       -0.31       -0.24

     kinetic stress (kbar)    148.85      0.01     -0.00
                                0.01    148.92      0.00
                               -0.00      0.00    148.84

     local   stress (kbar)  -1980.42     -1.54     -5.37
                               -1.54  -2103.60     46.06
                               -5.37     46.06   1376.42

     nonloc. stress (kbar)    136.85      0.00      0.02
                                0.00    136.83     -0.24
                                0.02     -0.24    135.51

     hartree stress (kbar)    943.06      0.69      2.21
                                0.69   1002.64    -18.54
                                2.21    -18.54   -700.03

     exc-cor stress (kbar)     43.31      0.00      0.00
                                0.00     43.31     -0.02
                                0.00     -0.02     43.21

     corecor stress (kbar)    -90.41     -0.00     -0.00
                               -0.00    -90.41      0.02
                               -0.00      0.02    -90.29

     ewald   stress (kbar)    800.24      0.85      3.16
                                0.85    863.79    -27.59
                                3.16    -27.59   -913.89

     hubbard stress (kbar)      0.00      0.00      0.00
                                0.00      0.00      0.00
                                0.00      0.00      0.00

     DFT-D   stress (kbar)      0.06      0.00      0.00
                                0.00      0.05     -0.01
                                0.00     -0.01      0.00

     XDM     stress (kbar)      0.00      0.00      0.00
                                0.00      0.00      0.00
                                0.00      0.00      0.00

     dft-nl  stress (kbar)      0.00      0.00      0.00
                                0.00      0.00      0.00
                                0.00      0.00      0.00

     TS-vdW  stress (kbar)      0.00      0.00      0.00
                                0.00      0.00      0.00
                                0.00      0.00      0.00


                                0.00      0.00      0.00
                                0.00      0.00      0.00


                                0.00      0.00      0.00

     Energy error            =      3.4E-02 Ry
     Gradient error          =      5.0E-02 Ry/Bohr

     number of scf cycles    =   5
     number of bfgs steps    =   4

     energy             old  =    -111.0858863859 Ry
     energy             new  =    -111.1200864304 Ry

     CASE: energy            _new < energy            _old

     new trust radius        =       0.1257784046 bohr
     new conv_thr            =       0.0000000068 Ry


ATOMIC_POSITIONS (angstrom)
Si            5.0198665198        4.5880358537       19.9679353587
Cl            5.7225583479        6.4336389770       20.5779324717
Cl            3.1637644805        4.5133645071       20.8750041086
Cl            6.1258106518        3.2940106622       21.1404080610



     Writing output data file ./out/aiida.save/
     NEW-OLD atomic charge density approx. for the potential

     negative rho (up, down):  4.500E-02 0.000E+00

     total cpu time spent up to now is       72.8 secs

     Self-consistent Calculation

     iteration #  1     ecut=    60.00 Ry     beta= 0.40
     Davidson diagonalization with overlap

---- Real-time Memory Report at c_bands before calling an iterative solver
           558 MiB given to the printing process from OS
             0 MiB allocation reported by mallinfo(arena+hblkhd)
        324225 MiB available memory on the node where the printing process lives
------------------
     ethr =  1.00E-06,  avg # of iterations = 19.0

     negative rho (up, down):  4.466E-02 0.000E+00

     total cpu time spent up to now is       73.8 secs

     total energy              =    -111.13371613 Ry
     estimated scf accuracy    <       0.00330431 Ry

     iteration #  2     ecut=    60.00 Ry     beta= 0.40
     Davidson diagonalization with overlap

---- Real-time Memory Report at c_bands before calling an iterative solver
           558 MiB given to the printing process from OS
             0 MiB allocation reported by mallinfo(arena+hblkhd)
        324216 MiB available memory on the node where the printing process lives
------------------
     ethr =  1.32E-05,  avg # of iterations =  2.0

     negative rho (up, down):  4.445E-02 0.000E+00

     total cpu time spent up to now is       74.4 secs

     total energy              =    -111.13429860 Ry
     estimated scf accuracy    <       0.00031245 Ry

     iteration #  3     ecut=    60.00 Ry     beta= 0.40
     Davidson diagonalization with overlap

---- Real-time Memory Report at c_bands before calling an iterative solver
           558 MiB given to the printing process from OS
             0 MiB allocation reported by mallinfo(arena+hblkhd)
        324217 MiB available memory on the node where the printing process lives
------------------
     ethr =  1.25E-06,  avg # of iterations =  6.0

     negative rho (up, down):  4.435E-02 0.000E+00

     total cpu time spent up to now is       75.1 secs

     total energy              =    -111.13432109 Ry
     estimated scf accuracy    <       0.00005941 Ry

     iteration #  4     ecut=    60.00 Ry     beta= 0.40
     Davidson diagonalization with overlap

---- Real-time Memory Report at c_bands before calling an iterative solver
           558 MiB given to the printing process from OS
             0 MiB allocation reported by mallinfo(arena+hblkhd)
        324217 MiB available memory on the node where the printing process lives
------------------
     ethr =  2.38E-07,  avg # of iterations =  2.0

     negative rho (up, down):  4.435E-02 0.000E+00

     total cpu time spent up to now is       75.8 secs

     total energy              =    -111.13432469 Ry
     estimated scf accuracy    <       0.00000712 Ry

     iteration #  5     ecut=    60.00 Ry     beta= 0.40
     Davidson diagonalization with overlap

---- Real-time Memory Report at c_bands before calling an iterative solver
           558 MiB given to the printing process from OS
             0 MiB allocation reported by mallinfo(arena+hblkhd)
        324217 MiB available memory on the node where the printing process lives
------------------
     ethr =  2.85E-08,  avg # of iterations =  2.0

     negative rho (up, down):  4.427E-02 0.000E+00

     total cpu time spent up to now is       76.4 secs

     total energy              =    -111.13432559 Ry
     estimated scf accuracy    <       0.00000054 Ry

     iteration #  6     ecut=    60.00 Ry     beta= 0.40
     Davidson diagonalization with overlap

---- Real-time Memory Report at c_bands before calling an iterative solver
           558 MiB given to the printing process from OS
             0 MiB allocation reported by mallinfo(arena+hblkhd)
        324216 MiB available memory on the node where the printing process lives
------------------
     ethr =  2.15E-09,  avg # of iterations =  4.0

     negative rho (up, down):  4.420E-02 0.000E+00

     total cpu time spent up to now is       77.1 secs

     total energy              =    -111.13432568 Ry
     estimated scf accuracy    <       0.00000003 Ry

     iteration #  7     ecut=    60.00 Ry     beta= 0.40
     Davidson diagonalization with overlap

---- Real-time Memory Report at c_bands before calling an iterative solver
           558 MiB given to the printing process from OS
             0 MiB allocation reported by mallinfo(arena+hblkhd)
        324217 MiB available memory on the node where the printing process lives
------------------
     ethr =  1.25E-10,  avg # of iterations =  2.0

     negative rho (up, down):  4.412E-02 0.000E+00

     total cpu time spent up to now is       77.8 secs

     End of self-consistent calculation

          k = 0.0000 0.0000 0.0000 ( 95217 PWs)   bands (ev):

   -21.5659 -20.5907 -20.5872 -13.0718 -10.3543 -10.3501  -9.3883  -8.6090
    -8.6046  -7.8537  -7.8471  -7.5561  -5.7209  -0.9418  -0.8937  -0.5498
    -0.4001

     occupation numbers 
     1.0000   1.0000   1.0000   1.0000   1.0000   1.0000   1.0000   1.0000
     1.0000   1.0000   1.0000   1.0000   0.5000   0.0000   0.0000   0.0000
     0.0000

     the Fermi energy is    -5.6930 ev

!    total energy              =    -111.13432576 Ry
     estimated scf accuracy    <          1.8E-09 Ry
     smearing contrib. (-TS)   =      -0.00482420 Ry
     internal energy E=F+TS    =    -111.12950157 Ry

     The total energy is F=E-TS. E is the sum of the following terms:
     one-electron contribution =    -402.01434202 Ry
     hartree contribution      =     203.31994426 Ry
     xc contribution           =     -33.93586020 Ry
     ewald contribution        =     121.50436534 Ry
     Dispersion Correction     =      -0.00360896 Ry
     one-center paw contrib.   =       0.00000000 Ry
      -> PAW hartree energy AE =       0.00000000 Ry
      -> PAW hartree energy PS =       0.00000000 Ry
      -> PAW xc energy AE      =       0.00000000 Ry
      -> PAW xc energy PS      =       0.00000000 Ry
      -> total E_H with PAW    =     203.31994426 Ry
      -> total E_XC with PAW   =     -33.93586020 Ry

     convergence has been achieved in   7 iterations

     negative rho (up, down):  4.412E-02 0.000E+00

     Forces acting on atoms (cartesian axes, Ry/au):

     atom    1 type  3   force =    -0.00084567    0.00870026    0.04993107
     atom    2 type  4   force =     0.00490254    0.00836131   -0.01891028
     atom    3 type  4   force =    -0.01202602   -0.00450181   -0.01656177
     atom    4 type  4   force =     0.00796914   -0.01255976   -0.01445902
     The non-local contrib.  to forces
     atom    1 type  3   force =    -0.00187955    0.01890542    0.10737657
     atom    2 type  4   force =    -0.05954396   -0.17137490   -0.09809332
     atom    3 type  4   force =     0.16355170   -0.00155516   -0.12551899
     atom    4 type  4   force =    -0.09601414    0.10685845   -0.14863955
     The ionic contribution  to forces
     atom    1 type  3   force =     0.05089114   -0.77363409   -5.11629904
     atom    2 type  4   force =     2.73285544    6.16165120    0.21199780
     atom    3 type  4   force =    -7.07612063   -0.56546443    1.75759652
     atom    4 type  4   force =     4.29237405   -4.82255268    3.14670472
     The local contribution  to forces
     atom    1 type  3   force =    -0.04990521    0.76377297    5.06084852
     atom    2 type  4   force =    -2.66855528   -5.98266790   -0.13363243
     atom    3 type  4   force =     6.90107476    0.56242428   -1.64958802
     atom    4 type  4   force =    -4.18868294    4.70348647   -3.01352449
     The core correction contribution to forces
     atom    1 type  3   force =     0.00004328   -0.00032499   -0.00194488
     atom    2 type  4   force =    -0.00055183   -0.00091351    0.00110436
     atom    3 type  4   force =     0.00122359    0.00033207    0.00096319
     atom    4 type  4   force =    -0.00078159    0.00109995    0.00077780
     The Hubbard contrib.    to forces
     atom    1 type  3   force =     0.00000000    0.00000000    0.00000000
     atom    2 type  4   force =     0.00000000    0.00000000    0.00000000
     atom    3 type  4   force =     0.00000000    0.00000000    0.00000000
     atom    4 type  4   force =     0.00000000    0.00000000    0.00000000
     The SCF correction term to forces
     atom    1 type  3   force =    -0.00000020   -0.00000220   -0.00000487
     atom    2 type  4   force =     0.00000939   -0.00000452   -0.00003526
     atom    3 type  4   force =     0.00000189   -0.00001272   -0.00003866
     atom    4 type  4   force =     0.00000789   -0.00002201   -0.00004529

     Dispersion contribution to forces:
     atom    1 type  3   force =     0.00000433   -0.00001642   -0.00004405
     atom    2 type  4   force =     0.00068822    0.00167136   -0.00025027
     atom    3 type  4   force =    -0.00175788   -0.00022543    0.00002536
     atom    4 type  4   force =     0.00106532   -0.00142951    0.00026896

     Total force =     0.062374     Total SCF correction =     0.000075

     Total Dispersion Force =     0.003118


     Computing stress (Cartesian axis) and pressure


     negative rho (up, down):  4.412E-02 0.000E+00
          total   stress  (Ry/bohr**3)                   (kbar)     P=        0.10
   0.00000269   0.00000003   0.00000011            0.40        0.01        0.02
   0.00000003   0.00000283  -0.00000107            0.01        0.42       -0.16
   0.00000011  -0.00000107  -0.00000340            0.02       -0.16       -0.50

     kinetic stress (kbar)    147.31      0.01     -0.03
                                0.01    147.43      0.32
                               -0.03      0.32    149.08

     local   stress (kbar)  -1973.66     -1.73     -5.42
                               -1.73  -2095.64     45.54
                               -5.42     45.54   1389.51

     nonloc. stress (kbar)    136.47      0.00      0.02
                                0.00    136.45     -0.19
                                0.02     -0.19    135.41

     hartree stress (kbar)    939.66      0.78      2.23
                                0.78    998.60    -18.23
                                2.23    -18.23   -706.06

     exc-cor stress (kbar)     43.44      0.00      0.00
                                0.00     43.44     -0.02
                                0.00     -0.02     43.33

     corecor stress (kbar)    -90.35     -0.00     -0.00
                               -0.00    -90.35      0.02
                               -0.00      0.02    -90.25

     ewald   stress (kbar)    797.47      0.95      3.22
                                0.95    860.43    -27.59
                                3.22    -27.59   -921.53

     hubbard stress (kbar)      0.00      0.00      0.00
                                0.00      0.00      0.00
                                0.00      0.00      0.00

     DFT-D   stress (kbar)      0.05      0.00      0.00
                                0.00      0.05     -0.01
                                0.00     -0.01      0.00

     XDM     stress (kbar)      0.00      0.00      0.00
                                0.00      0.00      0.00
                                0.00      0.00      0.00

     dft-nl  stress (kbar)      0.00      0.00      0.00
                                0.00      0.00      0.00
                                0.00      0.00      0.00

     TS-vdW  stress (kbar)      0.00      0.00      0.00
                                0.00      0.00      0.00
                                0.00      0.00      0.00


                                0.00      0.00      0.00
                                0.00      0.00      0.00


                                0.00      0.00      0.00

     Energy error            =      1.4E-02 Ry
     Gradient error          =      5.0E-02 Ry/Bohr

     number of scf cycles    =   6
     number of bfgs steps    =   5

     energy             old  =    -111.1200864304 Ry
     energy             new  =    -111.1343257648 Ry

     CASE: energy            _new < energy            _old

     new trust radius        =       0.0996020985 bohr
     new conv_thr            =       0.0000000028 Ry


ATOMIC_POSITIONS (angstrom)
Si            5.0191829211        4.5957063681       20.0127082725
Cl            5.7419445499        6.4767996027       20.5547079082
Cl            3.1141599216        4.5044279044       20.8603957180
Cl            6.1567126074        3.2521161249       21.1334681013



     Writing output data file ./out/aiida.save/
     NEW-OLD atomic charge density approx. for the potential

     negative rho (up, down):  4.510E-02 0.000E+00

     total cpu time spent up to now is       85.6 secs

     Self-consistent Calculation

     iteration #  1     ecut=    60.00 Ry     beta= 0.40
     Davidson diagonalization with overlap

---- Real-time Memory Report at c_bands before calling an iterative solver
           572 MiB given to the printing process from OS
             0 MiB allocation reported by mallinfo(arena+hblkhd)
        324213 MiB available memory on the node where the printing process lives
------------------
     ethr =  1.00E-06,  avg # of iterations = 13.0

     negative rho (up, down):  4.482E-02 0.000E+00

     total cpu time spent up to now is       86.4 secs

     total energy              =    -111.14061430 Ry
     estimated scf accuracy    <       0.00156894 Ry

     iteration #  2     ecut=    60.00 Ry     beta= 0.40
     Davidson diagonalization with overlap

---- Real-time Memory Report at c_bands before calling an iterative solver
           572 MiB given to the printing process from OS
             0 MiB allocation reported by mallinfo(arena+hblkhd)
        324204 MiB available memory on the node where the printing process lives
------------------
     ethr =  6.28E-06,  avg # of iterations =  2.0

     negative rho (up, down):  4.464E-02 0.000E+00

     total cpu time spent up to now is       87.1 secs

     total energy              =    -111.14077320 Ry
     estimated scf accuracy    <       0.00019575 Ry

     iteration #  3     ecut=    60.00 Ry     beta= 0.40
     Davidson diagonalization with overlap

---- Real-time Memory Report at c_bands before calling an iterative solver
           572 MiB given to the printing process from OS
             0 MiB allocation reported by mallinfo(arena+hblkhd)
        324203 MiB available memory on the node where the printing process lives
------------------
     ethr =  7.83E-07,  avg # of iterations =  2.0

     negative rho (up, down):  4.462E-02 0.000E+00

     total cpu time spent up to now is       87.8 secs

     total energy              =    -111.14078222 Ry
     estimated scf accuracy    <       0.00003979 Ry

     iteration #  4     ecut=    60.00 Ry     beta= 0.40
     Davidson diagonalization with overlap

---- Real-time Memory Report at c_bands before calling an iterative solver
           572 MiB given to the printing process from OS
             0 MiB allocation reported by mallinfo(arena+hblkhd)
        324204 MiB available memory on the node where the printing process lives
------------------
     ethr =  1.59E-07,  avg # of iterations =  2.0

     negative rho (up, down):  4.458E-02 0.000E+00

     total cpu time spent up to now is       88.5 secs

     total energy              =    -111.14078555 Ry
     estimated scf accuracy    <       0.00000368 Ry

     iteration #  5     ecut=    60.00 Ry     beta= 0.40
     Davidson diagonalization with overlap

---- Real-time Memory Report at c_bands before calling an iterative solver
           572 MiB given to the printing process from OS
             0 MiB allocation reported by mallinfo(arena+hblkhd)
        324203 MiB available memory on the node where the printing process lives
------------------
     ethr =  1.47E-08,  avg # of iterations =  2.0

     negative rho (up, down):  4.452E-02 0.000E+00

     total cpu time spent up to now is       89.2 secs

     total energy              =    -111.14078604 Ry
     estimated scf accuracy    <       0.00000043 Ry

     iteration #  6     ecut=    60.00 Ry     beta= 0.40
     Davidson diagonalization with overlap

---- Real-time Memory Report at c_bands before calling an iterative solver
           572 MiB given to the printing process from OS
             0 MiB allocation reported by mallinfo(arena+hblkhd)
        324203 MiB available memory on the node where the printing process lives
------------------
     ethr =  1.71E-09,  avg # of iterations =  2.0

     negative rho (up, down):  4.445E-02 0.000E+00

     total cpu time spent up to now is       89.9 secs

     total energy              =    -111.14078610 Ry
     estimated scf accuracy    <       0.00000002 Ry

     iteration #  7     ecut=    60.00 Ry     beta= 0.40
     Davidson diagonalization with overlap

---- Real-time Memory Report at c_bands before calling an iterative solver
           572 MiB given to the printing process from OS
             0 MiB allocation reported by mallinfo(arena+hblkhd)
        324204 MiB available memory on the node where the printing process lives
------------------
     ethr =  8.57E-11,  avg # of iterations =  4.0

     negative rho (up, down):  4.442E-02 0.000E+00

     total cpu time spent up to now is       90.6 secs

     total energy              =    -111.14078613 Ry
     estimated scf accuracy    <          7.2E-09 Ry

     iteration #  8     ecut=    60.00 Ry     beta= 0.40
     Davidson diagonalization with overlap

---- Real-time Memory Report at c_bands before calling an iterative solver
           572 MiB given to the printing process from OS
             0 MiB allocation reported by mallinfo(arena+hblkhd)
        324203 MiB available memory on the node where the printing process lives
------------------
     ethr =  2.87E-11,  avg # of iterations =  4.0

     negative rho (up, down):  4.440E-02 0.000E+00

     total cpu time spent up to now is       91.3 secs

     total energy              =    -111.14078615 Ry
     estimated scf accuracy    <          4.7E-09 Ry

     iteration #  9     ecut=    60.00 Ry     beta= 0.40
     Davidson diagonalization with overlap

---- Real-time Memory Report at c_bands before calling an iterative solver
           572 MiB given to the printing process from OS
             0 MiB allocation reported by mallinfo(arena+hblkhd)
        324203 MiB available memory on the node where the printing process lives
------------------
     ethr =  1.87E-11,  avg # of iterations =  2.0

     negative rho (up, down):  4.439E-02 0.000E+00

     total cpu time spent up to now is       91.9 secs

     End of self-consistent calculation

          k = 0.0000 0.0000 0.0000 ( 95217 PWs)   bands (ev):

   -21.4709 -20.6155 -20.6123 -13.0778 -10.3531 -10.3484  -9.3012  -8.5886
    -8.5833  -7.9593  -7.9529  -7.6524  -5.6391  -0.9396  -0.8805  -0.8601
    -0.4109

     occupation numbers 
     1.0000   1.0000   1.0000   1.0000   1.0000   1.0000   1.0000   1.0000
     1.0000   1.0000   1.0000   1.0000   0.5000   0.0000   0.0000   0.0000
     0.0000

     the Fermi energy is    -5.6112 ev

!    total energy              =    -111.14078619 Ry
     estimated scf accuracy    <          2.1E-10 Ry
     smearing contrib. (-TS)   =      -0.00482420 Ry
     internal energy E=F+TS    =    -111.13596199 Ry

     The total energy is F=E-TS. E is the sum of the following terms:
     one-electron contribution =    -399.33924497 Ry
     hartree contribution      =     201.94907777 Ry
     xc contribution           =     -33.89436862 Ry
     ewald contribution        =     120.15261247 Ry
     Dispersion Correction     =      -0.00403864 Ry
     one-center paw contrib.   =       0.00000000 Ry
      -> PAW hartree energy AE =       0.00000000 Ry
      -> PAW hartree energy PS =       0.00000000 Ry
      -> PAW xc energy AE      =       0.00000000 Ry
      -> PAW xc energy PS      =       0.00000000 Ry
      -> total E_H with PAW    =     201.94907777 Ry
      -> total E_XC with PAW   =     -33.89436862 Ry

     convergence has been achieved in   9 iterations

     negative rho (up, down):  4.439E-02 0.000E+00

     Forces acting on atoms (cartesian axes, Ry/au):

     atom    1 type  3   force =    -0.00083965    0.00854414    0.04866548
     atom    2 type  4   force =    -0.00267417   -0.00938175   -0.01547915
     atom    3 type  4   force =     0.00737443   -0.00198893   -0.01624937
     atom    4 type  4   force =    -0.00386061    0.00282654   -0.01693697
     The non-local contrib.  to forces
     atom    1 type  3   force =    -0.00236349    0.02406474    0.13635202
     atom    2 type  4   force =    -0.07064054   -0.19498261   -0.07990271
     atom    3 type  4   force =     0.19154921    0.00433725   -0.11210872
     atom    4 type  4   force =    -0.11337271    0.13155355   -0.13921801
     The ionic contribution  to forces
     atom    1 type  3   force =     0.04170015   -0.69913872   -4.65075569
     atom    2 type  4   force =     2.62867189    5.87111806    0.07959691
     atom    3 type  4   force =    -6.80390509   -0.55519683    1.60173275
     atom    4 type  4   force =     4.13353304   -4.61678252    2.96942603
     The local contribution  to forces
     atom    1 type  3   force =    -0.04030324    0.68482405    4.56996365
     atom    2 type  4   force =    -2.56107420   -5.68682801   -0.01591562
     atom    3 type  4   force =     6.62086334    0.54884404   -1.50685053
     atom    4 type  4   force =    -4.02466319    4.48886672   -2.84826242
     The core correction contribution to forces
     atom    1 type  3   force =     0.00012295   -0.00119162   -0.00686364
     atom    2 type  4   force =    -0.00009078    0.00016927    0.00086916
     atom    3 type  4   force =     0.00003846    0.00017522    0.00092442
     atom    4 type  4   force =    -0.00005941    0.00014884    0.00090649
     The Hubbard contrib.    to forces
     atom    1 type  3   force =     0.00000000    0.00000000    0.00000000
     atom    2 type  4   force =     0.00000000    0.00000000    0.00000000
     atom    3 type  4   force =     0.00000000    0.00000000    0.00000000
     atom    4 type  4   force =     0.00000000    0.00000000    0.00000000
     The SCF correction term to forces
     atom    1 type  3   force =    -0.00000007    0.00000051    0.00000440
     atom    2 type  4   force =     0.00000199    0.00001110    0.00002096
     atom    3 type  4   force =    -0.00000863    0.00000193    0.00002188
     atom    4 type  4   force =     0.00000282   -0.00000179    0.00002440

     Dispersion contribution to forces:
     atom    1 type  3   force =     0.00000467   -0.00001653   -0.00004383
     atom    2 type  4   force =     0.00045810    0.00112874   -0.00015642
     atom    3 type  4   force =    -0.00116224   -0.00015224    0.00002227
     atom    4 type  4   force =     0.00069947   -0.00095996    0.00017798

     Total force =     0.058386     Total SCF correction =     0.000042

     Total Dispersion Force =     0.002080


     Computing stress (Cartesian axis) and pressure


     negative rho (up, down):  4.439E-02 0.000E+00
          total   stress  (Ry/bohr**3)                   (kbar)     P=       -0.30
  -0.00000159   0.00000003   0.00000004           -0.23        0.00        0.01
   0.00000003  -0.00000132  -0.00000028            0.00       -0.19       -0.04
   0.00000004  -0.00000028  -0.00000321            0.01       -0.04       -0.47

     kinetic stress (kbar)    146.21      0.00     -0.06
                                0.00    146.39      0.65
                               -0.06      0.65    149.88

     local   stress (kbar)  -1971.76     -1.93     -5.52
                               -1.93  -2092.75     45.84
                               -5.52     45.84   1401.51

     nonloc. stress (kbar)    136.25      0.00      0.01
                                0.00    136.25     -0.14
                                0.01     -0.14    135.45

     hartree stress (kbar)    938.24      0.86      2.26
                                0.86    996.68    -18.17
                                2.26    -18.17   -711.03

     exc-cor stress (kbar)     43.51      0.00      0.00
                                0.00     43.50     -0.02
                                0.00     -0.02     43.39

     corecor stress (kbar)    -90.32     -0.00     -0.00
                               -0.00    -90.32      0.02
                               -0.00      0.02    -90.23

     ewald   stress (kbar)    797.60      1.06      3.32
                                1.06    860.02    -28.21
                                3.32    -28.21   -929.44

     hubbard stress (kbar)      0.00      0.00      0.00
                                0.00      0.00      0.00
                                0.00      0.00      0.00

     DFT-D   stress (kbar)      0.03      0.00      0.00
                                0.00      0.03     -0.01
                                0.00     -0.01      0.00

     XDM     stress (kbar)      0.00      0.00      0.00
                                0.00      0.00      0.00
                                0.00      0.00      0.00

     dft-nl  stress (kbar)      0.00      0.00      0.00
                                0.00      0.00      0.00
                                0.00      0.00      0.00

     TS-vdW  stress (kbar)      0.00      0.00      0.00
                                0.00      0.00      0.00
                                0.00      0.00      0.00


                                0.00      0.00      0.00
                                0.00      0.00      0.00


                                0.00      0.00      0.00

     Energy error            =      6.5E-03 Ry
     Gradient error          =      4.9E-02 Ry/Bohr

     number of scf cycles    =   7
     number of bfgs steps    =   6

     energy             old  =    -111.1343257648 Ry
     energy             new  =    -111.1407861854 Ry

     CASE: energy            _new < energy            _old

     new trust radius        =       0.0966472506 bohr
     new conv_thr            =       0.0000000013 Ry


ATOMIC_POSITIONS (angstrom)
Si            5.0183544230        4.6044577232       20.0630906828
Cl            5.7539766456        6.5021527357       20.5325604199
Cl            3.0835820989        4.4975368029       20.8438033934
Cl            6.1760868325        3.2249027382       21.1218255039



     Writing output data file ./out/aiida.save/
     NEW-OLD atomic charge density approx. for the potential

     negative rho (up, down):  4.494E-02 0.000E+00

     total cpu time spent up to now is       99.7 secs

     Self-consistent Calculation

     iteration #  1     ecut=    60.00 Ry     beta= 0.40
     Davidson diagonalization with overlap

---- Real-time Memory Report at c_bands before calling an iterative solver
           583 MiB given to the printing process from OS
             0 MiB allocation reported by mallinfo(arena+hblkhd)
        324201 MiB available memory on the node where the printing process lives
------------------
     ethr =  1.00E-06,  avg # of iterations = 11.0

     negative rho (up, down):  4.476E-02 0.000E+00

     total cpu time spent up to now is      100.5 secs

     total energy              =    -111.14436719 Ry
     estimated scf accuracy    <       0.00082498 Ry

     iteration #  2     ecut=    60.00 Ry     beta= 0.40
     Davidson diagonalization with overlap

---- Real-time Memory Report at c_bands before calling an iterative solver
           583 MiB given to the printing process from OS
             0 MiB allocation reported by mallinfo(arena+hblkhd)
        324193 MiB available memory on the node where the printing process lives
------------------
     ethr =  3.30E-06,  avg # of iterations =  2.0

     negative rho (up, down):  4.476E-02 0.000E+00

     total cpu time spent up to now is      101.2 secs

     total energy              =    -111.14437871 Ry
     estimated scf accuracy    <       0.00014283 Ry

     iteration #  3     ecut=    60.00 Ry     beta= 0.40
     Davidson diagonalization with overlap

---- Real-time Memory Report at c_bands before calling an iterative solver
           583 MiB given to the printing process from OS
             0 MiB allocation reported by mallinfo(arena+hblkhd)
        324194 MiB available memory on the node where the printing process lives
------------------
     ethr =  5.71E-07,  avg # of iterations =  2.0

     negative rho (up, down):  4.476E-02 0.000E+00

     total cpu time spent up to now is      101.9 secs

     total energy              =    -111.14439058 Ry
     estimated scf accuracy    <       0.00001267 Ry

     iteration #  4     ecut=    60.00 Ry     beta= 0.40
     Davidson diagonalization with overlap

---- Real-time Memory Report at c_bands before calling an iterative solver
           583 MiB given to the printing process from OS
             0 MiB allocation reported by mallinfo(arena+hblkhd)
        324195 MiB available memory on the node where the printing process lives
------------------
     ethr =  5.07E-08,  avg # of iterations =  4.0

     negative rho (up, down):  4.464E-02 0.000E+00

     total cpu time spent up to now is      102.6 secs

     total energy              =    -111.14439223 Ry
     estimated scf accuracy    <       0.00000077 Ry

     iteration #  5     ecut=    60.00 Ry     beta= 0.40
     Davidson diagonalization with overlap

---- Real-time Memory Report at c_bands before calling an iterative solver
           583 MiB given to the printing process from OS
             0 MiB allocation reported by mallinfo(arena+hblkhd)
        324195 MiB available memory on the node where the printing process lives
------------------
     ethr =  3.10E-09,  avg # of iterations =  2.0

     negative rho (up, down):  4.458E-02 0.000E+00

     total cpu time spent up to now is      103.3 secs

     total energy              =    -111.14439233 Ry
     estimated scf accuracy    <       0.00000021 Ry

     iteration #  6     ecut=    60.00 Ry     beta= 0.40
     Davidson diagonalization with overlap

---- Real-time Memory Report at c_bands before calling an iterative solver
           583 MiB given to the printing process from OS
             0 MiB allocation reported by mallinfo(arena+hblkhd)
        324194 MiB available memory on the node where the printing process lives
------------------
     ethr =  8.52E-10,  avg # of iterations =  2.0

     negative rho (up, down):  4.454E-02 0.000E+00

     total cpu time spent up to now is      104.0 secs

     total energy              =    -111.14439237 Ry
     estimated scf accuracy    <       0.00000001 Ry

     iteration #  7     ecut=    60.00 Ry     beta= 0.40
     Davidson diagonalization with overlap

---- Real-time Memory Report at c_bands before calling an iterative solver
           583 MiB given to the printing process from OS
             0 MiB allocation reported by mallinfo(arena+hblkhd)
        324194 MiB available memory on the node where the printing process lives
------------------
     ethr =  5.99E-11,  avg # of iterations =  2.0

     negative rho (up, down):  4.452E-02 0.000E+00

     total cpu time spent up to now is      104.6 secs

     total energy              =    -111.14439238 Ry
     estimated scf accuracy    <          1.7E-09 Ry

     iteration #  8     ecut=    60.00 Ry     beta= 0.40
     Davidson diagonalization with overlap

---- Real-time Memory Report at c_bands before calling an iterative solver
           583 MiB given to the printing process from OS
             0 MiB allocation reported by mallinfo(arena+hblkhd)
        324193 MiB available memory on the node where the printing process lives
------------------
     ethr =  6.72E-12,  avg # of iterations =  4.0

     negative rho (up, down):  4.450E-02 0.000E+00

     total cpu time spent up to now is      105.3 secs

     End of self-consistent calculation

          k = 0.0000 0.0000 0.0000 ( 95217 PWs)   bands (ev):

   -21.4643 -20.6663 -20.6632 -13.0932 -10.3908 -10.3855  -9.2794  -8.6029
    -8.5971  -8.0547  -8.0487  -7.7309  -5.4778  -1.1227  -0.8369  -0.7744
    -0.4145

     occupation numbers 
     1.0000   1.0000   1.0000   1.0000   1.0000   1.0000   1.0000   1.0000
     1.0000   1.0000   1.0000   1.0000   0.5000   0.0000   0.0000   0.0000
     0.0000

     the Fermi energy is    -5.4499 ev

!    total energy              =    -111.14439242 Ry
     estimated scf accuracy    <          1.6E-10 Ry
     smearing contrib. (-TS)   =      -0.00482420 Ry
     internal energy E=F+TS    =    -111.13956822 Ry

     The total energy is F=E-TS. E is the sum of the following terms:
     one-electron contribution =    -398.15276158 Ry
     hartree contribution      =     201.32257044 Ry
     xc contribution           =     -33.88617915 Ry
     ewald contribution        =     119.58100547 Ry
     Dispersion Correction     =      -0.00420340 Ry
     one-center paw contrib.   =       0.00000000 Ry
      -> PAW hartree energy AE =       0.00000000 Ry
      -> PAW hartree energy PS =       0.00000000 Ry
      -> PAW xc energy AE      =       0.00000000 Ry
      -> PAW xc energy PS      =       0.00000000 Ry
      -> total E_H with PAW    =     201.32257044 Ry
      -> total E_XC with PAW   =     -33.88617915 Ry

     convergence has been achieved in   8 iterations

     negative rho (up, down):  4.450E-02 0.000E+00

     Forces acting on atoms (cartesian axes, Ry/au):

     atom    1 type  3   force =    -0.00058890    0.00613270    0.03493490
     atom    2 type  4   force =    -0.00535285   -0.01468904   -0.00985606
     atom    3 type  4   force =     0.01397495   -0.00034904   -0.01170473
     atom    4 type  4   force =    -0.00803321    0.00890537   -0.01337410
     The non-local contrib.  to forces
     atom    1 type  3   force =    -0.00264235    0.02695909    0.15271394
     atom    2 type  4   force =    -0.07590428   -0.20390118   -0.06011481
     atom    3 type  4   force =     0.20432164    0.00901214   -0.09469031
     atom    4 type  4   force =    -0.12154843    0.14493479   -0.12356234
     The ionic contribution  to forces
     atom    1 type  3   force =     0.03476218   -0.64081071   -4.26664177
     atom    2 type  4   force =     2.58650040    5.73889186   -0.04460623
     atom    3 type  4   force =    -6.69152070   -0.56068702    1.47385245
     atom    4 type  4   force =     4.07025812   -4.53739413    2.83739555
     The local contribution  to forces
     atom    1 type  3   force =    -0.03288054    0.62167455    4.15854516
     atom    2 type  4   force =    -2.51628256   -5.55083375    0.09446814
     atom    3 type  4   force =     6.50219784    0.55134893   -1.39148822
     atom    4 type  4   force =    -3.95732757    4.40216403   -2.72794716
     The core correction contribution to forces
     atom    1 type  3   force =     0.00016665   -0.00167336   -0.00963426
     atom    2 type  4   force =     0.00005657    0.00045151    0.00048057
     atom    3 type  4   force =    -0.00032775    0.00007228    0.00060266
     atom    4 type  4   force =     0.00017159   -0.00020645    0.00063314
     The Hubbard contrib.    to forces
     atom    1 type  3   force =     0.00000000    0.00000000    0.00000000
     atom    2 type  4   force =     0.00000000    0.00000000    0.00000000
     atom    3 type  4   force =     0.00000000    0.00000000    0.00000000
     atom    4 type  4   force =     0.00000000    0.00000000    0.00000000
     The SCF correction term to forces
     atom    1 type  3   force =     0.00000042   -0.00000114   -0.00000672
     atom    2 type  4   force =     0.00000239    0.00000481    0.00000016
     atom    3 type  4   force =    -0.00000751   -0.00000162    0.00000096
     atom    4 type  4   force =     0.00000418   -0.00000503    0.00000285

     Dispersion contribution to forces:
     atom    1 type  3   force =     0.00000483   -0.00001583   -0.00004052
     atom    2 type  4   force =     0.00027470    0.00069762   -0.00008295
     atom    3 type  4   force =    -0.00068850   -0.00009385    0.00001867
     atom    4 type  4   force =     0.00040897   -0.00058794    0.00010479

     Total force =     0.047488     Total SCF correction =     0.000014

     Total Dispersion Force =     0.001256


     Computing stress (Cartesian axis) and pressure


     negative rho (up, down):  4.450E-02 0.000E+00
          total   stress  (Ry/bohr**3)                   (kbar)     P=       -0.40
  -0.00000314   0.00000002  -0.00000001           -0.46        0.00       -0.00
   0.00000002  -0.00000279   0.00000018            0.00       -0.41        0.03
  -0.00000001   0.00000018  -0.00000218           -0.00        0.03       -0.32

     kinetic stress (kbar)    145.54     -0.00     -0.09
                               -0.00    145.78      0.95
                               -0.09      0.95    150.87

     local   stress (kbar)  -1973.20     -2.08     -5.64
                               -2.08  -2093.48     46.68
                               -5.64     46.68   1411.01

     nonloc. stress (kbar)    136.17      0.00      0.01
                                0.00    136.17     -0.11
                                0.01     -0.11    135.53

     hartree stress (kbar)    938.27      0.93      2.29
                                0.93    996.38    -18.30
                                2.29    -18.30   -714.54

     exc-cor stress (kbar)     43.52      0.00      0.00
                                0.00     43.52     -0.02
                                0.00     -0.02     43.40

     corecor stress (kbar)    -90.31     -0.00     -0.00
                               -0.00    -90.31      0.01
                               -0.00      0.01    -90.23

     ewald   stress (kbar)    799.53      1.16      3.43
                                1.16    861.52    -29.17
                                3.43    -29.17   -936.35

     hubbard stress (kbar)      0.00      0.00      0.00
                                0.00      0.00      0.00
                                0.00      0.00      0.00

     DFT-D   stress (kbar)      0.02      0.00      0.00
                                0.00      0.01     -0.00
                                0.00     -0.00      0.00

     XDM     stress (kbar)      0.00      0.00      0.00
                                0.00      0.00      0.00
                                0.00      0.00      0.00

     dft-nl  stress (kbar)      0.00      0.00      0.00
                                0.00      0.00      0.00
                                0.00      0.00      0.00

     TS-vdW  stress (kbar)      0.00      0.00      0.00
                                0.00      0.00      0.00
                                0.00      0.00      0.00


                                0.00      0.00      0.00
                                0.00      0.00      0.00


                                0.00      0.00      0.00

     Energy error            =      3.6E-03 Ry
     Gradient error          =      3.5E-02 Ry/Bohr

     number of scf cycles    =   8
     number of bfgs steps    =   7

     energy             old  =    -111.1407861854 Ry
     energy             new  =    -111.1443924207 Ry

     CASE: energy            _new < energy            _old

     new trust radius        =       0.0898405068 bohr
     new conv_thr            =       0.0000000007 Ry


ATOMIC_POSITIONS (angstrom)
Si            5.0175634281        4.6126445641       20.1099153432
Cl            5.7585310635        6.5100984542       20.5145833057
Cl            3.0721593575        4.4932528254       20.8282872463
Cl            6.1837461509        3.2130541563       21.1084941048



     Writing output data file ./out/aiida.save/
     NEW-OLD atomic charge density approx. for the potential

     negative rho (up, down):  4.484E-02 0.000E+00

     total cpu time spent up to now is      113.1 secs

     Self-consistent Calculation

     iteration #  1     ecut=    60.00 Ry     beta= 0.40
     Davidson diagonalization with overlap

---- Real-time Memory Report at c_bands before calling an iterative solver
           591 MiB given to the printing process from OS
             0 MiB allocation reported by mallinfo(arena+hblkhd)
        324189 MiB available memory on the node where the printing process lives
------------------
     ethr =  1.00E-06,  avg # of iterations =  9.0

     negative rho (up, down):  4.478E-02 0.000E+00

     total cpu time spent up to now is      113.9 secs

     total energy              =    -111.14655135 Ry
     estimated scf accuracy    <       0.00071245 Ry

     iteration #  2     ecut=    60.00 Ry     beta= 0.40
     Davidson diagonalization with overlap

---- Real-time Memory Report at c_bands before calling an iterative solver
           591 MiB given to the printing process from OS
             0 MiB allocation reported by mallinfo(arena+hblkhd)
        324181 MiB available memory on the node where the printing process lives
------------------
     ethr =  2.85E-06,  avg # of iterations =  3.0

     negative rho (up, down):  4.476E-02 0.000E+00

     total cpu time spent up to now is      114.6 secs

     total energy              =    -111.14661150 Ry
     estimated scf accuracy    <       0.00011842 Ry

     iteration #  3     ecut=    60.00 Ry     beta= 0.40
     Davidson diagonalization with overlap

---- Real-time Memory Report at c_bands before calling an iterative solver
           591 MiB given to the printing process from OS
             0 MiB allocation reported by mallinfo(arena+hblkhd)
        324182 MiB available memory on the node where the printing process lives
------------------
     ethr =  4.74E-07,  avg # of iterations =  1.0

     negative rho (up, down):  4.481E-02 0.000E+00

     total cpu time spent up to now is      115.3 secs

     total energy              =    -111.14661487 Ry
     estimated scf accuracy    <       0.00002276 Ry

     iteration #  4     ecut=    60.00 Ry     beta= 0.40
     Davidson diagonalization with overlap

---- Real-time Memory Report at c_bands before calling an iterative solver
           591 MiB given to the printing process from OS
             0 MiB allocation reported by mallinfo(arena+hblkhd)
        324183 MiB available memory on the node where the printing process lives
------------------
     ethr =  9.11E-08,  avg # of iterations =  2.0

     negative rho (up, down):  4.478E-02 0.000E+00

     total cpu time spent up to now is      116.0 secs

     total energy              =    -111.14661781 Ry
     estimated scf accuracy    <       0.00000116 Ry

     iteration #  5     ecut=    60.00 Ry     beta= 0.40
     Davidson diagonalization with overlap

---- Real-time Memory Report at c_bands before calling an iterative solver
           591 MiB given to the printing process from OS
             0 MiB allocation reported by mallinfo(arena+hblkhd)
        324183 MiB available memory on the node where the printing process lives
------------------
     ethr =  4.62E-09,  avg # of iterations =  3.0

     negative rho (up, down):  4.475E-02 0.000E+00

     total cpu time spent up to now is      116.6 secs

     total energy              =    -111.14661804 Ry
     estimated scf accuracy    <       0.00000020 Ry

     iteration #  6     ecut=    60.00 Ry     beta= 0.40
     Davidson diagonalization with overlap

---- Real-time Memory Report at c_bands before calling an iterative solver
           591 MiB given to the printing process from OS
             0 MiB allocation reported by mallinfo(arena+hblkhd)
        324182 MiB available memory on the node where the printing process lives
------------------
     ethr =  7.86E-10,  avg # of iterations =  2.0

     negative rho (up, down):  4.473E-02 0.000E+00

     total cpu time spent up to now is      117.3 secs

     total energy              =    -111.14661808 Ry
     estimated scf accuracy    <       0.00000003 Ry

     iteration #  7     ecut=    60.00 Ry     beta= 0.40
     Davidson diagonalization with overlap

---- Real-time Memory Report at c_bands before calling an iterative solver
           591 MiB given to the printing process from OS
             0 MiB allocation reported by mallinfo(arena+hblkhd)
        324181 MiB available memory on the node where the printing process lives
------------------
     ethr =  1.11E-10,  avg # of iterations =  2.0

     negative rho (up, down):  4.472E-02 0.000E+00

     total cpu time spent up to now is      118.0 secs

     total energy              =    -111.14661810 Ry
     estimated scf accuracy    <          3.1E-09 Ry

     iteration #  8     ecut=    60.00 Ry     beta= 0.40
     Davidson diagonalization with overlap

---- Real-time Memory Report at c_bands before calling an iterative solver
           591 MiB given to the printing process from OS
             0 MiB allocation reported by mallinfo(arena+hblkhd)
        324181 MiB available memory on the node where the printing process lives
------------------
     ethr =  1.25E-11,  avg # of iterations =  5.0

     negative rho (up, down):  4.472E-02 0.000E+00

     total cpu time spent up to now is      118.7 secs

     total energy              =    -111.14661810 Ry
     estimated scf accuracy    <          2.1E-09 Ry

     iteration #  9     ecut=    60.00 Ry     beta= 0.40
     Davidson diagonalization with overlap

---- Real-time Memory Report at c_bands before calling an iterative solver
           591 MiB given to the printing process from OS
             0 MiB allocation reported by mallinfo(arena+hblkhd)
        324182 MiB available memory on the node where the printing process lives
------------------
     ethr =  8.38E-12,  avg # of iterations =  2.0

     negative rho (up, down):  4.471E-02 0.000E+00

     total cpu time spent up to now is      119.4 secs

     End of self-consistent calculation

          k = 0.0000 0.0000 0.0000 ( 95217 PWs)   bands (ev):

   -21.5200 -20.7326 -20.7295 -13.1139 -10.4521 -10.4465  -9.3060  -8.6405
    -8.6344  -8.1364  -8.1309  -7.7906  -5.2673  -1.2451  -0.7024  -0.6263
    -0.4109

     occupation numbers 
     1.0000   1.0000   1.0000   1.0000   1.0000   1.0000   1.0000   1.0000
     1.0000   1.0000   1.0000   1.0000   0.5000   0.0000   0.0000   0.0000
     0.0000

     the Fermi energy is    -5.2395 ev

!    total energy              =    -111.14661811 Ry
     estimated scf accuracy    <          4.5E-11 Ry
     smearing contrib. (-TS)   =      -0.00482420 Ry
     internal energy E=F+TS    =    -111.14179391 Ry

     The total energy is F=E-TS. E is the sum of the following terms:
     one-electron contribution =    -398.19358026 Ry
     hartree contribution      =     201.31298135 Ry
     xc contribution           =     -33.90313046 Ry
     ewald contribution        =     119.64617623 Ry
     Dispersion Correction     =      -0.00424076 Ry
     one-center paw contrib.   =       0.00000000 Ry
      -> PAW hartree energy AE =       0.00000000 Ry
      -> PAW hartree energy PS =       0.00000000 Ry
      -> PAW xc energy AE      =       0.00000000 Ry
      -> PAW xc energy PS      =       0.00000000 Ry
      -> total E_H with PAW    =     201.31298135 Ry
      -> total E_XC with PAW   =     -33.90313046 Ry

     convergence has been achieved in   9 iterations

     negative rho (up, down):  4.471E-02 0.000E+00

     Forces acting on atoms (cartesian axes, Ry/au):

     atom    1 type  3   force =    -0.00021982    0.00262488    0.01537766
     atom    2 type  4   force =    -0.00424497   -0.01065429   -0.00380054
     atom    3 type  4   force =     0.01076912    0.00040205   -0.00515951
     atom    4 type  4   force =    -0.00630433    0.00762736   -0.00641761
     The non-local contrib.  to forces
     atom    1 type  3   force =    -0.00277049    0.02818745    0.15989366
     atom    2 type  4   force =    -0.07656305   -0.20180009   -0.04202517
     atom    3 type  4   force =     0.20521987    0.01223077   -0.07702795
     atom    4 type  4   force =    -0.12251052    0.14896864   -0.10593730
     The ionic contribution  to forces
     atom    1 type  3   force =     0.03042613   -0.60051709   -3.98335232
     atom    2 type  4   force =     2.59511140    5.73976599   -0.14923130
     atom    3 type  4   force =    -6.71044309   -0.57758012    1.38018790
     atom    4 type  4   force =     4.08490555   -4.56166879    2.75239572
     The local contribution  to forces
     atom    1 type  3   force =    -0.02806402    0.57683883    3.84969867
     atom    2 type  4   force =    -2.52296111   -5.54928766    0.18745608
     atom    3 type  4   force =     6.51656844    0.56579961   -1.30847916
     atom    4 type  4   force =    -3.96902258    4.42086766   -2.65308434
     The core correction contribution to forces
     atom    1 type  3   force =     0.00018415   -0.00186908   -0.01082347
     atom    2 type  4   force =    -0.00003735    0.00013479    0.00006497
     atom    3 type  4   force =    -0.00006736    0.00002581    0.00015182
     atom    4 type  4   force =     0.00002520   -0.00009129    0.00014008
     The Hubbard contrib.    to forces
     atom    1 type  3   force =     0.00000000    0.00000000    0.00000000
     atom    2 type  4   force =     0.00000000    0.00000000    0.00000000
     atom    3 type  4   force =     0.00000000    0.00000000    0.00000000
     atom    4 type  4   force =     0.00000000    0.00000000    0.00000000
     The SCF correction term to forces
     atom    1 type  3   force =    -0.00000014   -0.00000037   -0.00000313
     atom    2 type  4   force =     0.00000240    0.00000433   -0.00000983
     atom    3 type  4   force =    -0.00000596   -0.00000230   -0.00000828
     atom    4 type  4   force =     0.00000366   -0.00000640   -0.00000667

     Dispersion contribution to forces:
     atom    1 type  3   force =     0.00000483   -0.00001469   -0.00003577
     atom    2 type  4   force =     0.00020303    0.00052852   -0.00005528
     atom    3 type  4   force =    -0.00050250   -0.00007155    0.00001615
     atom    4 type  4   force =     0.00029464   -0.00044229    0.00007490

     Total force =     0.025909     Total SCF correction =     0.000018

     Total Dispersion Force =     0.000933


     Computing stress (Cartesian axis) and pressure


     negative rho (up, down):  4.471E-02 0.000E+00
          total   stress  (Ry/bohr**3)                   (kbar)     P=       -0.27
  -0.00000246   0.00000003  -0.00000002           -0.36        0.00       -0.00
   0.00000003  -0.00000210   0.00000028            0.00       -0.31        0.04
  -0.00000002   0.00000028  -0.00000092           -0.00        0.04       -0.13

     kinetic stress (kbar)    145.27     -0.01     -0.11
                               -0.01    145.54      1.18
                               -0.11      1.18    151.87

     local   stress (kbar)  -1976.81     -2.17     -5.75
                               -2.17  -2096.69     47.88
                               -5.75     47.88   1417.39

     nonloc. stress (kbar)    136.19      0.00      0.01
                                0.00    136.19     -0.10
                                0.01     -0.10    135.61

     hartree stress (kbar)    939.28      0.96      2.32
                                0.96    997.25    -18.58
                                2.32    -18.58   -716.49

     exc-cor stress (kbar)     43.50      0.00      0.00
                                0.00     43.50     -0.02
                                0.00     -0.02     43.37

     corecor stress (kbar)    -90.32     -0.00     -0.00
                               -0.00    -90.32      0.01
                               -0.00      0.01    -90.24

     ewald   stress (kbar)    802.52      1.21      3.53
                                1.21    864.22    -30.32
                                3.53    -30.32   -941.63

     hubbard stress (kbar)      0.00      0.00      0.00
                                0.00      0.00      0.00
                                0.00      0.00      0.00

     DFT-D   stress (kbar)      0.01      0.00      0.00
                                0.00      0.01     -0.00
                                0.00     -0.00      0.00

     XDM     stress (kbar)      0.00      0.00      0.00
                                0.00      0.00      0.00
                                0.00      0.00      0.00

     dft-nl  stress (kbar)      0.00      0.00      0.00
                                0.00      0.00      0.00
                                0.00      0.00      0.00

     TS-vdW  stress (kbar)      0.00      0.00      0.00
                                0.00      0.00      0.00
                                0.00      0.00      0.00


                                0.00      0.00      0.00
                                0.00      0.00      0.00


                                0.00      0.00      0.00

     Energy error            =      2.2E-03 Ry
     Gradient error          =      1.5E-02 Ry/Bohr

     number of scf cycles    =   9
     number of bfgs steps    =   8

     energy             old  =    -111.1443924207 Ry
     energy             new  =    -111.1466181116 Ry

     CASE: energy            _new < energy            _old

     new trust radius        =       0.0396821930 bohr
     new conv_thr            =       0.0000000004 Ry


ATOMIC_POSITIONS (angstrom)
Si            5.0172267262        4.6162349726       20.1306022935
Cl            5.7563299045        6.5038352969       20.5081727295
Cl            3.0777867016        4.4926772813       20.8213836051
Cl            6.1806566677        3.2163024492       21.1011213719



     Writing output data file ./out/aiida.save/
     NEW-OLD atomic charge density approx. for the potential

     negative rho (up, down):  4.432E-02 0.000E+00

     total cpu time spent up to now is      127.2 secs

     Self-consistent Calculation

     iteration #  1     ecut=    60.00 Ry     beta= 0.40
     Davidson diagonalization with overlap

---- Real-time Memory Report at c_bands before calling an iterative solver
           597 MiB given to the printing process from OS
             0 MiB allocation reported by mallinfo(arena+hblkhd)
        324183 MiB available memory on the node where the printing process lives
------------------
     ethr =  1.00E-06,  avg # of iterations =  8.0

     negative rho (up, down):  4.437E-02 0.000E+00

     total cpu time spent up to now is      127.9 secs

     total energy              =    -111.14721781 Ry
     estimated scf accuracy    <       0.00036371 Ry

     iteration #  2     ecut=    60.00 Ry     beta= 0.40
     Davidson diagonalization with overlap

---- Real-time Memory Report at c_bands before calling an iterative solver
           597 MiB given to the printing process from OS
             0 MiB allocation reported by mallinfo(arena+hblkhd)
        324175 MiB available memory on the node where the printing process lives
------------------
     ethr =  1.45E-06,  avg # of iterations =  2.0

     negative rho (up, down):  4.440E-02 0.000E+00

     total cpu time spent up to now is      128.6 secs

     total energy              =    -111.14729473 Ry
     estimated scf accuracy    <       0.00003366 Ry

     iteration #  3     ecut=    60.00 Ry     beta= 0.40
     Davidson diagonalization with overlap

---- Real-time Memory Report at c_bands before calling an iterative solver
           597 MiB given to the printing process from OS
             0 MiB allocation reported by mallinfo(arena+hblkhd)
        324175 MiB available memory on the node where the printing process lives
------------------
     ethr =  1.35E-07,  avg # of iterations =  2.0

     negative rho (up, down):  4.446E-02 0.000E+00

     total cpu time spent up to now is      129.3 secs

     total energy              =    -111.14729790 Ry
     estimated scf accuracy    <       0.00000784 Ry

     iteration #  4     ecut=    60.00 Ry     beta= 0.40
     Davidson diagonalization with overlap

---- Real-time Memory Report at c_bands before calling an iterative solver
           597 MiB given to the printing process from OS
             0 MiB allocation reported by mallinfo(arena+hblkhd)
        324174 MiB available memory on the node where the printing process lives
------------------
     ethr =  3.14E-08,  avg # of iterations =  4.0

     negative rho (up, down):  4.446E-02 0.000E+00

     total cpu time spent up to now is      130.0 secs

     total energy              =    -111.14730049 Ry
     estimated scf accuracy    <       0.00000057 Ry

     iteration #  5     ecut=    60.00 Ry     beta= 0.40
     Davidson diagonalization with overlap

---- Real-time Memory Report at c_bands before calling an iterative solver
           597 MiB given to the printing process from OS
             0 MiB allocation reported by mallinfo(arena+hblkhd)
        324173 MiB available memory on the node where the printing process lives
------------------
     ethr =  2.30E-09,  avg # of iterations =  3.0

     negative rho (up, down):  4.445E-02 0.000E+00

     total cpu time spent up to now is      130.7 secs

     total energy              =    -111.14730068 Ry
     estimated scf accuracy    <       0.00000014 Ry

     iteration #  6     ecut=    60.00 Ry     beta= 0.40
     Davidson diagonalization with overlap

---- Real-time Memory Report at c_bands before calling an iterative solver
           597 MiB given to the printing process from OS
             0 MiB allocation reported by mallinfo(arena+hblkhd)
        324173 MiB available memory on the node where the printing process lives
------------------
     ethr =  5.74E-10,  avg # of iterations =  3.0

     negative rho (up, down):  4.445E-02 0.000E+00

     total cpu time spent up to now is      131.4 secs

     total energy              =    -111.14730071 Ry
     estimated scf accuracy    <          6.0E-09 Ry

     iteration #  7     ecut=    60.00 Ry     beta= 0.40
     Davidson diagonalization with overlap

---- Real-time Memory Report at c_bands before calling an iterative solver
           597 MiB given to the printing process from OS
             0 MiB allocation reported by mallinfo(arena+hblkhd)
        324173 MiB available memory on the node where the printing process lives
------------------
     ethr =  2.41E-11,  avg # of iterations =  6.0

     negative rho (up, down):  4.445E-02 0.000E+00

     total cpu time spent up to now is      132.1 secs

     total energy              =    -111.14730071 Ry
     estimated scf accuracy    <          2.6E-09 Ry

     iteration #  8     ecut=    60.00 Ry     beta= 0.40
     Davidson diagonalization with overlap

---- Real-time Memory Report at c_bands before calling an iterative solver
           597 MiB given to the printing process from OS
             0 MiB allocation reported by mallinfo(arena+hblkhd)
        324173 MiB available memory on the node where the printing process lives
------------------
     ethr =  1.04E-11,  avg # of iterations =  2.0

     negative rho (up, down):  4.445E-02 0.000E+00

     total cpu time spent up to now is      132.8 secs

     End of self-consistent calculation

          k = 0.0000 0.0000 0.0000 ( 95217 PWs)   bands (ev):

   -21.5882 -20.7798 -20.7768 -13.1282 -10.4997 -10.4942  -9.3489  -8.6756
    -8.6696  -8.1753  -8.1702  -7.8137  -5.1294  -1.2221  -0.6024  -0.5185
    -0.4027

     occupation numbers 
     1.0000   1.0000   1.0000   1.0000   1.0000   1.0000   1.0000   1.0000
     1.0000   1.0000   1.0000   1.0000   0.5000   0.0000   0.0000   0.0000
     0.0000

     the Fermi energy is    -5.1016 ev

!    total energy              =    -111.14730071 Ry
     estimated scf accuracy    <          4.4E-11 Ry
     smearing contrib. (-TS)   =      -0.00482420 Ry
     internal energy E=F+TS    =    -111.14247651 Ry

     The total energy is F=E-TS. E is the sum of the following terms:
     one-electron contribution =    -398.94537934 Ry
     hartree contribution      =     201.67365157 Ry
     xc contribution           =     -33.92774393 Ry
     ewald contribution        =     120.06121582 Ry
     Dispersion Correction     =      -0.00422063 Ry
     one-center paw contrib.   =       0.00000000 Ry
      -> PAW hartree energy AE =       0.00000000 Ry
      -> PAW hartree energy PS =       0.00000000 Ry
      -> PAW xc energy AE      =       0.00000000 Ry
      -> PAW xc energy PS      =       0.00000000 Ry
      -> total E_H with PAW    =     201.67365157 Ry
      -> total E_XC with PAW   =     -33.92774393 Ry

     convergence has been achieved in   8 iterations

     negative rho (up, down):  4.445E-02 0.000E+00

     Forces acting on atoms (cartesian axes, Ry/au):

     atom    1 type  3   force =     0.00002448    0.00019333    0.00194507
     atom    2 type  4   force =    -0.00131477   -0.00279142   -0.00050592
     atom    3 type  4   force =     0.00302737    0.00021582   -0.00063437
     atom    4 type  4   force =    -0.00173709    0.00238227   -0.00080479
     The non-local contrib.  to forces
     atom    1 type  3   force =    -0.00273281    0.02773961    0.15759360
     atom    2 type  4   force =    -0.07421443   -0.19441230   -0.03405769
     atom    3 type  4   force =     0.19880787    0.01296775   -0.06814873
     atom    4 type  4   force =    -0.11882520    0.14555578   -0.09609969
     The ionic contribution  to forces
     atom    1 type  3   force =     0.02993574   -0.59175132   -3.90486139
     atom    2 type  4   force =     2.63004597    5.82110089   -0.18956470
     atom    3 type  4   force =    -6.79962436   -0.59285734    1.35480712
     atom    4 type  4   force =     4.13964264   -4.63649222    2.73961897
     The local contribution  to forces
     atom    1 type  3   force =    -0.02735845    0.56600511    3.75966475
     atom    2 type  4   force =    -2.55714600   -5.62968675    0.22334117
     atom    3 type  4   force =     6.60397630    0.58015002   -1.28715721
     atom    4 type  4   force =    -4.02261186    4.49356253   -2.64416985
     The core correction contribution to forces
     atom    1 type  3   force =     0.00017616   -0.00178644   -0.01042051
     atom    2 type  4   force =    -0.00023538   -0.00039675   -0.00015414
     atom    3 type  4   force =     0.00045426    0.00003916   -0.00014922
     atom    4 type  4   force =    -0.00028453    0.00026141   -0.00023845
     The Hubbard contrib.    to forces
     atom    1 type  3   force =     0.00000000    0.00000000    0.00000000
     atom    2 type  4   force =     0.00000000    0.00000000    0.00000000
     atom    3 type  4   force =     0.00000000    0.00000000    0.00000000
     atom    4 type  4   force =     0.00000000    0.00000000    0.00000000
     The SCF correction term to forces
     atom    1 type  3   force =    -0.00000060    0.00000059    0.00000249
     atom    2 type  4   force =    -0.00000115   -0.00000163    0.00000041
     atom    3 type  4   force =     0.00000096   -0.00000044   -0.00000087
     atom    4 type  4   force =    -0.00000398    0.00000358   -0.00000145

     Dispersion contribution to forces:
     atom    1 type  3   force =     0.00000474   -0.00001391   -0.00003273
     atom    2 type  4   force =     0.00023651    0.00060544   -0.00006980
     atom    3 type  4   force =    -0.00058737   -0.00008302    0.00001570
     atom    4 type  4   force =     0.00034613   -0.00050850    0.00008683

     Total force =     0.005705     Total SCF correction =     0.000007

     Total Dispersion Force =     0.001080


     Computing stress (Cartesian axis) and pressure


     negative rho (up, down):  4.445E-02 0.000E+00
          total   stress  (Ry/bohr**3)                   (kbar)     P=       -0.06
  -0.00000070   0.00000003  -0.00000001           -0.10        0.00       -0.00
   0.00000003  -0.00000037   0.00000011            0.00       -0.05        0.02
  -0.00000001   0.00000011  -0.00000012           -0.00        0.02       -0.02

     kinetic stress (kbar)    145.35     -0.01     -0.12
                               -0.01    145.64      1.26
                               -0.12      1.26    152.43

     local   stress (kbar)  -1979.98     -2.16     -5.82
                               -2.16  -2099.84     48.75
                               -5.82     48.75   1418.86

     nonloc. stress (kbar)    136.27      0.00      0.01
                                0.00    136.27     -0.11
                                0.01     -0.11    135.64

     hartree stress (kbar)    940.39      0.95      2.34
                                0.95    998.39    -18.82
                                2.34    -18.82   -716.56

     exc-cor stress (kbar)     43.47      0.00      0.00
                                0.00     43.46     -0.03
                                0.00     -0.03     43.33

     corecor stress (kbar)    -90.34     -0.00     -0.00
                               -0.00    -90.34      0.02
                               -0.00      0.02    -90.26

     ewald   stress (kbar)    804.72      1.22      3.59
                                1.22    866.36    -31.05
                                3.59    -31.05   -943.46

     hubbard stress (kbar)      0.00      0.00      0.00
                                0.00      0.00      0.00
                                0.00      0.00      0.00

     DFT-D   stress (kbar)      0.02      0.00      0.00
                                0.00      0.01     -0.00
                                0.00     -0.00      0.00

     XDM     stress (kbar)      0.00      0.00      0.00
                                0.00      0.00      0.00
                                0.00      0.00      0.00

     dft-nl  stress (kbar)      0.00      0.00      0.00
                                0.00      0.00      0.00
                                0.00      0.00      0.00

     TS-vdW  stress (kbar)      0.00      0.00      0.00
                                0.00      0.00      0.00
                                0.00      0.00      0.00


                                0.00      0.00      0.00
                                0.00      0.00      0.00


                                0.00      0.00      0.00

     Energy error            =      6.8E-04 Ry
     Gradient error          =      3.0E-03 Ry/Bohr

     number of scf cycles    =  10
     number of bfgs steps    =   9

     energy             old  =    -111.1466181116 Ry
     energy             new  =    -111.1473007101 Ry

     CASE: energy            _new < energy            _old

     new trust radius        =       0.0087414876 bohr
     new conv_thr            =       0.0000000002 Ry


ATOMIC_POSITIONS (angstrom)
Si            5.0172580235        4.6161367504       20.1305136606
Cl            5.7544607894        6.4996904084       20.5087206631
Cl            3.0823651360        4.4932250676       20.8214055400
Cl            6.1779160512        3.2199977736       21.1006401364



     Writing output data file ./out/aiida.save/
     NEW-OLD atomic charge density approx. for the potential

     negative rho (up, down):  4.421E-02 0.000E+00

     total cpu time spent up to now is      140.6 secs

     Self-consistent Calculation

     iteration #  1     ecut=    60.00 Ry     beta= 0.40
     Davidson diagonalization with overlap

---- Real-time Memory Report at c_bands before calling an iterative solver
           603 MiB given to the printing process from OS
             0 MiB allocation reported by mallinfo(arena+hblkhd)
        324174 MiB available memory on the node where the printing process lives
------------------
     ethr =  1.00E-06,  avg # of iterations =  4.0

     Threshold (ethr) on eigenvalues was too large:
     Diagonalizing with lowered threshold

     Davidson diagonalization with overlap

---- Real-time Memory Report at c_bands before calling an iterative solver
           603 MiB given to the printing process from OS
             0 MiB allocation reported by mallinfo(arena+hblkhd)
        324166 MiB available memory on the node where the printing process lives
------------------
     ethr =  6.84E-08,  avg # of iterations =  5.0

     negative rho (up, down):  4.424E-02 0.000E+00

     total cpu time spent up to now is      141.7 secs

     total energy              =    -111.14733559 Ry
     estimated scf accuracy    <       0.00002927 Ry

     iteration #  2     ecut=    60.00 Ry     beta= 0.40
     Davidson diagonalization with overlap

---- Real-time Memory Report at c_bands before calling an iterative solver
           603 MiB given to the printing process from OS
             0 MiB allocation reported by mallinfo(arena+hblkhd)
        324167 MiB available memory on the node where the printing process lives
------------------
     ethr =  1.17E-07,  avg # of iterations =  2.0

     negative rho (up, down):  4.425E-02 0.000E+00

     total cpu time spent up to now is      142.3 secs

     total energy              =    -111.14734253 Ry
     estimated scf accuracy    <       0.00000201 Ry

     iteration #  3     ecut=    60.00 Ry     beta= 0.40
     Davidson diagonalization with overlap

---- Real-time Memory Report at c_bands before calling an iterative solver
           603 MiB given to the printing process from OS
             0 MiB allocation reported by mallinfo(arena+hblkhd)
        324166 MiB available memory on the node where the printing process lives
------------------
     ethr =  8.03E-09,  avg # of iterations =  2.0

     negative rho (up, down):  4.427E-02 0.000E+00

     total cpu time spent up to now is      143.0 secs

     total energy              =    -111.14734279 Ry
     estimated scf accuracy    <       0.00000030 Ry

     iteration #  4     ecut=    60.00 Ry     beta= 0.40
     Davidson diagonalization with overlap

---- Real-time Memory Report at c_bands before calling an iterative solver
           603 MiB given to the printing process from OS
             0 MiB allocation reported by mallinfo(arena+hblkhd)
        324166 MiB available memory on the node where the printing process lives
------------------
     ethr =  1.21E-09,  avg # of iterations =  2.0

     negative rho (up, down):  4.428E-02 0.000E+00

     total cpu time spent up to now is      143.7 secs

     total energy              =    -111.14734283 Ry
     estimated scf accuracy    <       0.00000005 Ry

     iteration #  5     ecut=    60.00 Ry     beta= 0.40
     Davidson diagonalization with overlap

---- Real-time Memory Report at c_bands before calling an iterative solver
           603 MiB given to the printing process from OS
             0 MiB allocation reported by mallinfo(arena+hblkhd)
        324166 MiB available memory on the node where the printing process lives
------------------
     ethr =  1.87E-10,  avg # of iterations =  2.0

     negative rho (up, down):  4.428E-02 0.000E+00

     total cpu time spent up to now is      144.4 secs

     total energy              =    -111.14734283 Ry
     estimated scf accuracy    <          2.4E-09 Ry

     iteration #  6     ecut=    60.00 Ry     beta= 0.40
     Davidson diagonalization with overlap

---- Real-time Memory Report at c_bands before calling an iterative solver
           603 MiB given to the printing process from OS
             0 MiB allocation reported by mallinfo(arena+hblkhd)
        324165 MiB available memory on the node where the printing process lives
------------------
     ethr =  9.56E-12,  avg # of iterations =  5.0

     negative rho (up, down):  4.428E-02 0.000E+00

     total cpu time spent up to now is      145.1 secs

     total energy              =    -111.14734283 Ry
     estimated scf accuracy    <          3.5E-10 Ry

     iteration #  7     ecut=    60.00 Ry     beta= 0.40
     Davidson diagonalization with overlap

---- Real-time Memory Report at c_bands before calling an iterative solver
           603 MiB given to the printing process from OS
             0 MiB allocation reported by mallinfo(arena+hblkhd)
        324165 MiB available memory on the node where the printing process lives
------------------
     ethr =  1.39E-12,  avg # of iterations =  4.0

     negative rho (up, down):  4.428E-02 0.000E+00

     total cpu time spent up to now is      145.8 secs

     End of self-consistent calculation

          k = 0.0000 0.0000 0.0000 ( 95217 PWs)   bands (ev):

   -21.6080 -20.7882 -20.7855 -13.1306 -10.5092 -10.5040  -9.3629  -8.6842
    -8.6783  -8.1771  -8.1722  -7.8128  -5.1111  -1.1851  -0.5839  -0.4994
    -0.3996

     occupation numbers 
     1.0000   1.0000   1.0000   1.0000   1.0000   1.0000   1.0000   1.0000
     1.0000   1.0000   1.0000   1.0000   0.5000   0.0000   0.0000   0.0000
     0.0000

     the Fermi energy is    -5.0833 ev

!    total energy              =    -111.14734283 Ry
     estimated scf accuracy    <          4.5E-11 Ry
     smearing contrib. (-TS)   =      -0.00482420 Ry
     internal energy E=F+TS    =    -111.14251863 Ry

     The total energy is F=E-TS. E is the sum of the following terms:
     one-electron contribution =    -399.26852107 Ry
     hartree contribution      =     201.83398585 Ry
     xc contribution           =     -33.93548038 Ry
     ewald contribution        =     120.23170043 Ry
     Dispersion Correction     =      -0.00420346 Ry
     one-center paw contrib.   =       0.00000000 Ry
      -> PAW hartree energy AE =       0.00000000 Ry
      -> PAW hartree energy PS =       0.00000000 Ry
      -> PAW xc energy AE      =       0.00000000 Ry
      -> PAW xc energy PS      =       0.00000000 Ry
      -> total E_H with PAW    =     201.83398585 Ry
      -> total E_XC with PAW   =     -33.93548038 Ry

     convergence has been achieved in   7 iterations

     negative rho (up, down):  4.428E-02 0.000E+00

     Forces acting on atoms (cartesian axes, Ry/au):

     atom    1 type  3   force =     0.00004930   -0.00018519   -0.00027724
     atom    2 type  4   force =    -0.00024031   -0.00011786   -0.00020076
     atom    3 type  4   force =     0.00023933   -0.00001015    0.00011825
     atom    4 type  4   force =    -0.00004832    0.00031320    0.00035975
     The non-local contrib.  to forces
     atom    1 type  3   force =    -0.00268993    0.02726600    0.15479677
     atom    2 type  4   force =    -0.07306934   -0.19167226   -0.03408642
     atom    3 type  4   force =     0.19588901    0.01265568   -0.06772323
     atom    4 type  4   force =    -0.11705017    0.14329420   -0.09525292
     The ionic contribution  to forces
     atom    1 type  3   force =     0.03069044   -0.59643326   -3.92832090
     atom    2 type  4   force =     2.64346858    5.85689175   -0.18675462
     atom    3 type  4   force =    -6.83523843   -0.59613563    1.36286625
     atom    4 type  4   force =     4.16107941   -4.66432286    2.75220927
     The local contribution  to forces
     atom    1 type  3   force =    -0.02812463    0.57070095    3.78322834
     atom    2 type  4   force =    -2.57060242   -5.66544603    0.22088896
     atom    3 type  4   force =     6.63962434    0.58350757   -1.29484927
     atom    4 type  4   force =    -4.04407861    4.52151616   -2.65638847
     The core correction contribution to forces
     atom    1 type  3   force =     0.00016890   -0.00170531   -0.00995093
     atom    2 type  4   force =    -0.00030398   -0.00056860   -0.00017241
     atom    3 type  4   force =     0.00063305    0.00005385   -0.00019644
     atom    4 type  4   force =    -0.00039321    0.00039486   -0.00031281
     The Hubbard contrib.    to forces
     atom    1 type  3   force =     0.00000000    0.00000000    0.00000000
     atom    2 type  4   force =     0.00000000    0.00000000    0.00000000
     atom    3 type  4   force =     0.00000000    0.00000000    0.00000000
     atom    4 type  4   force =     0.00000000    0.00000000    0.00000000
     The SCF correction term to forces
     atom    1 type  3   force =     0.00000014    0.00000048    0.00000178
     atom    2 type  4   force =     0.00000268    0.00000719    0.00000509
     atom    3 type  4   force =    -0.00000925    0.00000084    0.00000501
     atom    4 type  4   force =     0.00000470   -0.00000459    0.00000709

     Dispersion contribution to forces:
     atom    1 type  3   force =     0.00000470   -0.00001381   -0.00003227
     atom    2 type  4   force =     0.00026448    0.00067034   -0.00008132
     atom    3 type  4   force =    -0.00065907   -0.00009221    0.00001598
     atom    4 type  4   force =     0.00038989   -0.00056432    0.00009762

     Total force =     0.000726     Total SCF correction =     0.000017

     Total Dispersion Force =     0.001204


     Computing stress (Cartesian axis) and pressure


     negative rho (up, down):  4.428E-02 0.000E+00
          total   stress  (Ry/bohr**3)                   (kbar)     P=        0.01
  -0.00000007   0.00000003   0.00000000           -0.01        0.00        0.00
   0.00000003   0.00000025   0.00000002            0.00        0.04        0.00
   0.00000000   0.00000002   0.00000002            0.00        0.00        0.00

     kinetic stress (kbar)    145.44     -0.01     -0.12
                               -0.01    145.72      1.26
                               -0.12      1.26    152.49

     local   stress (kbar)  -1980.68     -2.14     -5.82
                               -2.14  -2100.62     48.92
                               -5.82     48.92   1418.28

     nonloc. stress (kbar)    136.30      0.00      0.01
                                0.00    136.30     -0.12
                                0.01     -0.12    135.64

     hartree stress (kbar)    940.68      0.94      2.34
                                0.94    998.73    -18.88
                                2.34    -18.88   -716.21

     exc-cor stress (kbar)     43.46      0.00      0.00
                                0.00     43.45     -0.03
                                0.00     -0.03     43.32

     corecor stress (kbar)    -90.35     -0.00     -0.00
                               -0.00    -90.35      0.02
                               -0.00      0.02    -90.26

     ewald   stress (kbar)    805.13      1.20      3.60
                                1.20    866.78    -31.17
                                3.60    -31.17   -943.25

     hubbard stress (kbar)      0.00      0.00      0.00
                                0.00      0.00      0.00
                                0.00      0.00      0.00

     DFT-D   stress (kbar)      0.02      0.00      0.00
                                0.00      0.01     -0.00
                                0.00     -0.00      0.00

     XDM     stress (kbar)      0.00      0.00      0.00
                                0.00      0.00      0.00
                                0.00      0.00      0.00

     dft-nl  stress (kbar)      0.00      0.00      0.00
                                0.00      0.00      0.00
                                0.00      0.00      0.00

     TS-vdW  stress (kbar)      0.00      0.00      0.00
                                0.00      0.00      0.00
                                0.00      0.00      0.00


                                0.00      0.00      0.00
                                0.00      0.00      0.00


                                0.00      0.00      0.00

     Energy error            =      4.2E-05 Ry
     Gradient error          =      3.6E-04 Ry/Bohr

     number of scf cycles    =  11
     number of bfgs steps    =  10

     energy             old  =    -111.1473007101 Ry
     energy             new  =    -111.1473428316 Ry

     CASE: energy            _new < energy            _old

     new trust radius        =       0.0022008933 bohr
     new conv_thr            =       0.0000000002 Ry


ATOMIC_POSITIONS (angstrom)
Si            5.0173019479        4.6158618680       20.1293827542
Cl            5.7540682198        6.4990784963       20.5090433724
Cl            3.0831524040        4.4933598539       20.8217929750
Cl            6.1774774283        3.2207497818       21.1010608984



     Writing output data file ./out/aiida.save/
     NEW-OLD atomic charge density approx. for the potential

     negative rho (up, down):  4.425E-02 0.000E+00

     total cpu time spent up to now is      153.5 secs

     Self-consistent Calculation

     iteration #  1     ecut=    60.00 Ry     beta= 0.40
     Davidson diagonalization with overlap

---- Real-time Memory Report at c_bands before calling an iterative solver
           609 MiB given to the printing process from OS
             0 MiB allocation reported by mallinfo(arena+hblkhd)
        324168 MiB available memory on the node where the printing process lives
------------------
     ethr =  1.00E-06,  avg # of iterations =  2.0

     Threshold (ethr) on eigenvalues was too large:
     Diagonalizing with lowered threshold

     Davidson diagonalization with overlap

---- Real-time Memory Report at c_bands before calling an iterative solver
           609 MiB given to the printing process from OS
             0 MiB allocation reported by mallinfo(arena+hblkhd)
        324160 MiB available memory on the node where the printing process lives
------------------
     ethr =  3.88E-09,  avg # of iterations =  6.0

     negative rho (up, down):  4.426E-02 0.000E+00

     total cpu time spent up to now is      154.6 secs

     total energy              =    -111.14734408 Ry
     estimated scf accuracy    <       0.00000051 Ry

     iteration #  2     ecut=    60.00 Ry     beta= 0.40
     Davidson diagonalization with overlap

---- Real-time Memory Report at c_bands before calling an iterative solver
           609 MiB given to the printing process from OS
             0 MiB allocation reported by mallinfo(arena+hblkhd)
        324160 MiB available memory on the node where the printing process lives
------------------
     ethr =  2.02E-09,  avg # of iterations =  2.0

     negative rho (up, down):  4.426E-02 0.000E+00

     total cpu time spent up to now is      155.3 secs

     total energy              =    -111.14734410 Ry
     estimated scf accuracy    <       0.00000008 Ry

     iteration #  3     ecut=    60.00 Ry     beta= 0.40
     Davidson diagonalization with overlap

---- Real-time Memory Report at c_bands before calling an iterative solver
           609 MiB given to the printing process from OS
             0 MiB allocation reported by mallinfo(arena+hblkhd)
        324159 MiB available memory on the node where the printing process lives
------------------
     ethr =  3.23E-10,  avg # of iterations =  2.0

     negative rho (up, down):  4.426E-02 0.000E+00

     total cpu time spent up to now is      156.0 secs

     total energy              =    -111.14734411 Ry
     estimated scf accuracy    <          9.1E-09 Ry

     iteration #  4     ecut=    60.00 Ry     beta= 0.40
     Davidson diagonalization with overlap

---- Real-time Memory Report at c_bands before calling an iterative solver
           609 MiB given to the printing process from OS
             0 MiB allocation reported by mallinfo(arena+hblkhd)
        324159 MiB available memory on the node where the printing process lives
------------------
     ethr =  3.64E-11,  avg # of iterations =  4.0

     negative rho (up, down):  4.426E-02 0.000E+00

     total cpu time spent up to now is      156.7 secs

     total energy              =    -111.14734411 Ry
     estimated scf accuracy    <          9.9E-10 Ry

     iteration #  5     ecut=    60.00 Ry     beta= 0.40
     Davidson diagonalization with overlap

---- Real-time Memory Report at c_bands before calling an iterative solver
           609 MiB given to the printing process from OS
             0 MiB allocation reported by mallinfo(arena+hblkhd)
        324160 MiB available memory on the node where the printing process lives
------------------
     ethr =  3.95E-12,  avg # of iterations =  2.0

     negative rho (up, down):  4.426E-02 0.000E+00

     total cpu time spent up to now is      157.4 secs

     total energy              =    -111.14734411 Ry
     estimated scf accuracy    <          1.7E-10 Ry

     iteration #  6     ecut=    60.00 Ry     beta= 0.40
     Davidson diagonalization with overlap

---- Real-time Memory Report at c_bands before calling an iterative solver
           609 MiB given to the printing process from OS
             0 MiB allocation reported by mallinfo(arena+hblkhd)
        324160 MiB available memory on the node where the printing process lives
------------------
     ethr =  6.87E-13,  avg # of iterations =  4.0

     negative rho (up, down):  4.426E-02 0.000E+00

     total cpu time spent up to now is      158.1 secs

     End of self-consistent calculation

          k = 0.0000 0.0000 0.0000 ( 95217 PWs)   bands (ev):

   -21.6089 -20.7875 -20.7850 -13.1304 -10.5089 -10.5038  -9.3638  -8.6843
    -8.6784  -8.1753  -8.1705  -7.8113  -5.1144  -1.1775  -0.5850  -0.5006
    -0.3993

     occupation numbers 
     1.0000   1.0000   1.0000   1.0000   1.0000   1.0000   1.0000   1.0000
     1.0000   1.0000   1.0000   1.0000   0.5000   0.0000   0.0000   0.0000
     0.0000

     the Fermi energy is    -5.0866 ev

!    total energy              =    -111.14734411 Ry
     estimated scf accuracy    <          4.1E-11 Ry
     smearing contrib. (-TS)   =      -0.00482420 Ry
     internal energy E=F+TS    =    -111.14251991 Ry

     The total energy is F=E-TS. E is the sum of the following terms:
     one-electron contribution =    -399.30330019 Ry
     hartree contribution      =     201.85189156 Ry
     xc contribution           =     -33.93595640 Ry
     ewald contribution        =     120.24904556 Ry
     Dispersion Correction     =      -0.00420045 Ry
     one-center paw contrib.   =       0.00000000 Ry
      -> PAW hartree energy AE =       0.00000000 Ry
      -> PAW hartree energy PS =       0.00000000 Ry
      -> PAW xc energy AE      =       0.00000000 Ry
      -> PAW xc energy PS      =       0.00000000 Ry
      -> total E_H with PAW    =     201.85189156 Ry
      -> total E_XC with PAW   =     -33.93595640 Ry

     convergence has been achieved in   6 iterations

     negative rho (up, down):  4.426E-02 0.000E+00

     Forces acting on atoms (cartesian axes, Ry/au):

     atom    1 type  3   force =     0.00003853   -0.00013051   -0.00006953
     atom    2 type  4   force =    -0.00015236    0.00006172   -0.00030693
     atom    3 type  4   force =     0.00001933   -0.00005284    0.00004844
     atom    4 type  4   force =     0.00009451    0.00012163    0.00032803
     The non-local contrib.  to forces
     atom    1 type  3   force =    -0.00268305    0.02719752    0.15425331
     atom    2 type  4   force =    -0.07291907   -0.19145659   -0.03451310
     atom    3 type  4   force =     0.19556515    0.01253518   -0.06810932
     atom    4 type  4   force =    -0.11683937    0.14294478   -0.09560450
     The ionic contribution  to forces
     atom    1 type  3   force =     0.03102062   -0.59833524   -3.93819774
     atom    2 type  4   force =     2.64447402    5.86096644   -0.18461766
     atom    3 type  4   force =    -6.83877254   -0.59611182    1.36623233
     atom    4 type  4   force =     4.16327790   -4.66651938    2.75658307
     The local contribution  to forces
     atom    1 type  3   force =    -0.02847079    0.57271250    3.79376203
     atom    2 type  4   force =    -2.57166606   -5.66954873    0.21906407
     atom    3 type  4   force =     6.64324954    0.58355980   -1.29790658
     atom    4 type  4   force =    -4.04633736    4.52386015   -2.66044711
     The core correction contribution to forces
     atom    1 type  3   force =     0.00016747   -0.00169238   -0.00986048
     atom    2 type  4   force =    -0.00030914   -0.00057907   -0.00016487
     atom    3 type  4   force =     0.00064600    0.00005661   -0.00019139
     atom    4 type  4   force =    -0.00040175    0.00040664   -0.00030999
     The Hubbard contrib.    to forces
     atom    1 type  3   force =     0.00000000    0.00000000    0.00000000
     atom    2 type  4   force =     0.00000000    0.00000000    0.00000000
     atom    3 type  4   force =     0.00000000    0.00000000    0.00000000
     atom    4 type  4   force =     0.00000000    0.00000000    0.00000000
     The SCF correction term to forces
     atom    1 type  3   force =    -0.00000014    0.00000100    0.00000576
     atom    2 type  4   force =    -0.00000118   -0.00000160    0.00000799
     atom    3 type  4   force =     0.00000287    0.00000131    0.00000741
     atom    4 type  4   force =    -0.00000200    0.00000320    0.00000714

     Dispersion contribution to forces:
     atom    1 type  3   force =     0.00000470   -0.00001383   -0.00003232
     atom    2 type  4   force =     0.00026934    0.00068135   -0.00008328
     atom    3 type  4   force =    -0.00067142   -0.00009385    0.00001608
     atom    4 type  4   force =     0.00039737   -0.00057367    0.00009952

     Total force =     0.000530     Total SCF correction =     0.000015

     Total Dispersion Force =     0.001225


     Computing stress (Cartesian axis) and pressure


     negative rho (up, down):  4.426E-02 0.000E+00
          total   stress  (Ry/bohr**3)                   (kbar)     P=        0.01
  -0.00000002   0.00000003   0.00000000           -0.00        0.00        0.00
   0.00000003   0.00000029   0.00000001            0.00        0.04        0.00
   0.00000000   0.00000001   0.00000001            0.00        0.00        0.00

     kinetic stress (kbar)    145.45     -0.01     -0.12
                               -0.01    145.74      1.25
                               -0.12      1.25    152.47

     local   stress (kbar)  -1980.67     -2.13     -5.83
                               -2.13  -2100.61     48.94
                               -5.83     48.94   1418.05

     nonloc. stress (kbar)    136.30      0.00      0.01
                                0.00    136.30     -0.12
                                0.01     -0.12    135.64

     hartree stress (kbar)    940.69      0.94      2.34
                                0.94    998.74    -18.89
                                2.34    -18.89   -716.12

     exc-cor stress (kbar)     43.46      0.00      0.00
                                0.00     43.45     -0.03
                                0.00     -0.03     43.31

     corecor stress (kbar)    -90.35     -0.00     -0.00
                               -0.00    -90.35      0.02
                               -0.00      0.02    -90.26

     ewald   stress (kbar)    805.10      1.20      3.60
                                1.20    866.76    -31.17
                                3.60    -31.17   -943.10

     hubbard stress (kbar)      0.00      0.00      0.00
                                0.00      0.00      0.00
                                0.00      0.00      0.00

     DFT-D   stress (kbar)      0.02      0.00      0.00
                                0.00      0.01     -0.00
                                0.00     -0.00      0.00

     XDM     stress (kbar)      0.00      0.00      0.00
                                0.00      0.00      0.00
                                0.00      0.00      0.00

     dft-nl  stress (kbar)      0.00      0.00      0.00
                                0.00      0.00      0.00
                                0.00      0.00      0.00

     TS-vdW  stress (kbar)      0.00      0.00      0.00
                                0.00      0.00      0.00
                                0.00      0.00      0.00


                                0.00      0.00      0.00
                                0.00      0.00      0.00


                                0.00      0.00      0.00

     Energy error            =      1.3E-06 Ry
     Gradient error          =      3.3E-04 Ry/Bohr

     number of scf cycles    =  12
     number of bfgs steps    =  11

     energy             old  =    -111.1473428316 Ry
     energy             new  =    -111.1473441117 Ry

     CASE: energy            _new < energy            _old

     new trust radius        =       0.0008283769 bohr
     new conv_thr            =       0.0000000002 Ry


ATOMIC_POSITIONS (angstrom)
Si            5.0173380616        4.6156999597       20.1289898221
Cl            5.7538679152        6.4989540832       20.5089552032
Cl            3.0833762001        4.4933659203       20.8219423201
Cl            6.1774178231        3.2210300368       21.1013926547



     Writing output data file ./out/aiida.save/
     NEW-OLD atomic charge density approx. for the potential

     negative rho (up, down):  4.425E-02 0.000E+00

     total cpu time spent up to now is      165.8 secs

     Self-consistent Calculation

     iteration #  1     ecut=    60.00 Ry     beta= 0.40
     Davidson diagonalization with overlap

---- Real-time Memory Report at c_bands before calling an iterative solver
           612 MiB given to the printing process from OS
             0 MiB allocation reported by mallinfo(arena+hblkhd)
        324161 MiB available memory on the node where the printing process lives
------------------
     ethr =  1.00E-06,  avg # of iterations =  2.0

     Threshold (ethr) on eigenvalues was too large:
     Diagonalizing with lowered threshold

     Davidson diagonalization with overlap

---- Real-time Memory Report at c_bands before calling an iterative solver
           612 MiB given to the printing process from OS
             0 MiB allocation reported by mallinfo(arena+hblkhd)
        324155 MiB available memory on the node where the printing process lives
------------------
     ethr =  7.76E-10,  avg # of iterations =  6.0

     negative rho (up, down):  4.425E-02 0.000E+00

     total cpu time spent up to now is      166.9 secs

     total energy              =    -111.14734450 Ry
     estimated scf accuracy    <       0.00000006 Ry

     iteration #  2     ecut=    60.00 Ry     beta= 0.40
     Davidson diagonalization with overlap

---- Real-time Memory Report at c_bands before calling an iterative solver
           612 MiB given to the printing process from OS
             0 MiB allocation reported by mallinfo(arena+hblkhd)
        324156 MiB available memory on the node where the printing process lives
------------------
     ethr =  2.29E-10,  avg # of iterations =  2.0

     negative rho (up, down):  4.426E-02 0.000E+00

     total cpu time spent up to now is      167.6 secs

     total energy              =    -111.14734450 Ry
     estimated scf accuracy    <       0.00000001 Ry

     iteration #  3     ecut=    60.00 Ry     beta= 0.40
     Davidson diagonalization with overlap

---- Real-time Memory Report at c_bands before calling an iterative solver
           612 MiB given to the printing process from OS
             0 MiB allocation reported by mallinfo(arena+hblkhd)
        324156 MiB available memory on the node where the printing process lives
------------------
     ethr =  4.33E-11,  avg # of iterations =  2.0

     negative rho (up, down):  4.426E-02 0.000E+00

     total cpu time spent up to now is      168.3 secs

     total energy              =    -111.14734450 Ry
     estimated scf accuracy    <          9.6E-10 Ry

     iteration #  4     ecut=    60.00 Ry     beta= 0.40
     Davidson diagonalization with overlap

---- Real-time Memory Report at c_bands before calling an iterative solver
           612 MiB given to the printing process from OS
             0 MiB allocation reported by mallinfo(arena+hblkhd)
        324155 MiB available memory on the node where the printing process lives
------------------
     ethr =  3.82E-12,  avg # of iterations =  4.0

     negative rho (up, down):  4.426E-02 0.000E+00

     total cpu time spent up to now is      169.0 secs

     End of self-consistent calculation

          k = 0.0000 0.0000 0.0000 ( 95217 PWs)   bands (ev):

   -21.6089 -20.7871 -20.7847 -13.1303 -10.5086 -10.5035  -9.3639  -8.6842
    -8.6783  -8.1747  -8.1699  -7.8108  -5.1159  -1.1754  -0.5857  -0.5013
    -0.3993

     occupation numbers 
     1.0000   1.0000   1.0000   1.0000   1.0000   1.0000   1.0000   1.0000
     1.0000   1.0000   1.0000   1.0000   0.5000   0.0000   0.0000   0.0000
     0.0000

     the Fermi energy is    -5.0881 ev

!    total energy              =    -111.14734450 Ry
     estimated scf accuracy    <          1.2E-10 Ry
     smearing contrib. (-TS)   =      -0.00482420 Ry
     internal energy E=F+TS    =    -111.14252030 Ry

     The total energy is F=E-TS. E is the sum of the following terms:
     one-electron contribution =    -399.30957775 Ry
     hartree contribution      =     201.85524263 Ry
     xc contribution           =     -33.93599355 Ry
     ewald contribution        =     120.25200804 Ry
     Dispersion Correction     =      -0.00419966 Ry
     one-center paw contrib.   =       0.00000000 Ry
      -> PAW hartree energy AE =       0.00000000 Ry
      -> PAW hartree energy PS =       0.00000000 Ry
      -> PAW xc energy AE      =       0.00000000 Ry
      -> PAW xc energy PS      =       0.00000000 Ry
      -> total E_H with PAW    =     201.85524263 Ry
      -> total E_XC with PAW   =     -33.93599355 Ry

     convergence has been achieved in   4 iterations

     negative rho (up, down):  4.426E-02 0.000E+00

     Forces acting on atoms (cartesian axes, Ry/au):

     atom    1 type  3   force =     0.00003220   -0.00010018    0.00004444
     atom    2 type  4   force =    -0.00013595    0.00007773   -0.00034985
     atom    3 type  4   force =    -0.00001412   -0.00006638    0.00001035
     atom    4 type  4   force =     0.00011787    0.00008883    0.00029507
     The non-local contrib.  to forces
     atom    1 type  3   force =    -0.00268152    0.02719927    0.15410409
     atom    2 type  4   force =    -0.07286997   -0.19143984   -0.03464705
     atom    3 type  4   force =     0.19549897    0.01248997   -0.06825628
     atom    4 type  4   force =    -0.11679537    0.14284737   -0.09575953
     The ionic contribution  to forces
     atom    1 type  3   force =     0.03128198   -0.59934804   -3.94124672
     atom    2 type  4   force =     2.64431526    5.86194635   -0.18487030
     atom    3 type  4   force =    -6.83944656   -0.59612351    1.36735206
     atom    4 type  4   force =     4.16384932   -4.66647480    2.75876497
     The local contribution  to forces
     atom    1 type  3   force =    -0.02873912    0.57375067    3.79705013
     atom    2 type  4   force =    -2.57154214   -5.67053492    0.21940956
     atom    3 type  4   force =     6.64396169    0.58360288   -1.29891855
     atom    4 type  4   force =    -4.04693300    4.52388320   -2.66251071
     The core correction contribution to forces
     atom    1 type  3   force =     0.00016671   -0.00169031   -0.00983599
     atom    2 type  4   force =    -0.00030981   -0.00057967   -0.00016161
     atom    3 type  4   force =     0.00064767    0.00005748   -0.00018870
     atom    4 type  4   force =    -0.00040307    0.00040853   -0.00030773
     The Hubbard contrib.    to forces
     atom    1 type  3   force =     0.00000000    0.00000000    0.00000000
     atom    2 type  4   force =     0.00000000    0.00000000    0.00000000
     atom    3 type  4   force =     0.00000000    0.00000000    0.00000000
     atom    4 type  4   force =     0.00000000    0.00000000    0.00000000
     The SCF correction term to forces
     atom    1 type  3   force =    -0.00000024    0.00000149    0.00000454
     atom    2 type  4   force =     0.00000027    0.00000110    0.00000264
     atom    3 type  4   force =    -0.00000083    0.00000060    0.00000495
     atom    4 type  4   force =     0.00000102   -0.00000022    0.00000730

     Dispersion contribution to forces:
     atom    1 type  3   force =     0.00000470   -0.00001385   -0.00003234
     atom    2 type  4   force =     0.00027076    0.00068412   -0.00008383
     atom    3 type  4   force =    -0.00067475   -0.00009441    0.00001614
     atom    4 type  4   force =     0.00039930   -0.00057586    0.00010004

     Total force =     0.000523     Total SCF correction =     0.000011

     Total Dispersion Force =     0.001231


     Computing stress (Cartesian axis) and pressure


     negative rho (up, down):  4.426E-02 0.000E+00
          total   stress  (Ry/bohr**3)                   (kbar)     P=        0.01
  -0.00000001   0.00000003   0.00000000           -0.00        0.00        0.00
   0.00000003   0.00000030   0.00000001            0.00        0.04        0.00
   0.00000000   0.00000001   0.00000000            0.00        0.00        0.00

     kinetic stress (kbar)    145.46     -0.01     -0.12
                               -0.01    145.74      1.25
                               -0.12      1.25    152.46

     local   stress (kbar)  -1980.65     -2.13     -5.83
                               -2.13  -2100.58     48.97
                               -5.83     48.97   1417.96

     nonloc. stress (kbar)    136.30      0.00      0.01
                                0.00    136.30     -0.12
                                0.01     -0.12    135.64

     hartree stress (kbar)    940.68      0.94      2.34
                                0.94    998.73    -18.90
                                2.34    -18.90   -716.09

     exc-cor stress (kbar)     43.46      0.00      0.00
                                0.00     43.45     -0.03
                                0.00     -0.03     43.31

     corecor stress (kbar)    -90.35     -0.00     -0.00
                               -0.00    -90.35      0.02
                               -0.00      0.02    -90.26

     ewald   stress (kbar)    805.08      1.19      3.60
                                1.19    866.74    -31.19
                                3.60    -31.19   -943.03

     hubbard stress (kbar)      0.00      0.00      0.00
                                0.00      0.00      0.00
                                0.00      0.00      0.00

     DFT-D   stress (kbar)      0.02      0.00      0.00
                                0.00      0.01     -0.00
                                0.00     -0.00      0.00

     XDM     stress (kbar)      0.00      0.00      0.00
                                0.00      0.00      0.00
                                0.00      0.00      0.00

     dft-nl  stress (kbar)      0.00      0.00      0.00
                                0.00      0.00      0.00
                                0.00      0.00      0.00

     TS-vdW  stress (kbar)      0.00      0.00      0.00
                                0.00      0.00      0.00
                                0.00      0.00      0.00


                                0.00      0.00      0.00
                                0.00      0.00      0.00


                                0.00      0.00      0.00

     Energy error            =      3.9E-07 Ry
     Gradient error          =      3.5E-04 Ry/Bohr

     number of scf cycles    =  13
     number of bfgs steps    =  12

     energy             old  =    -111.1473441117 Ry
     energy             new  =    -111.1473444986 Ry

     CASE: energy            _new < energy            _old

     new trust radius        =       0.0009112146 bohr
     new conv_thr            =       0.0000000002 Ry


ATOMIC_POSITIONS (angstrom)
Si            5.0173833209        4.6155253584       20.1287436642
Cl            5.7536403502        6.4989000707       20.5086868012
Cl            3.0835401699        4.4933328275       20.8220523005
Cl            6.1774361591        3.2212917433       21.1017972341



     Writing output data file ./out/aiida.save/
     NEW-OLD atomic charge density approx. for the potential

     negative rho (up, down):  4.425E-02 0.000E+00

     total cpu time spent up to now is      176.7 secs

     Self-consistent Calculation

     iteration #  1     ecut=    60.00 Ry     beta= 0.40
     Davidson diagonalization with overlap

---- Real-time Memory Report at c_bands before calling an iterative solver
           615 MiB given to the printing process from OS
             0 MiB allocation reported by mallinfo(arena+hblkhd)
        324158 MiB available memory on the node where the printing process lives
------------------
     ethr =  1.00E-06,  avg # of iterations =  2.0

     Threshold (ethr) on eigenvalues was too large:
     Diagonalizing with lowered threshold

     Davidson diagonalization with overlap

---- Real-time Memory Report at c_bands before calling an iterative solver
           615 MiB given to the printing process from OS
             0 MiB allocation reported by mallinfo(arena+hblkhd)
        324149 MiB available memory on the node where the printing process lives
------------------
     ethr =  8.24E-10,  avg # of iterations =  6.0

     negative rho (up, down):  4.425E-02 0.000E+00

     total cpu time spent up to now is      177.8 secs

     total energy              =    -111.14734498 Ry
     estimated scf accuracy    <       0.00000003 Ry

     iteration #  2     ecut=    60.00 Ry     beta= 0.40
     Davidson diagonalization with overlap

---- Real-time Memory Report at c_bands before calling an iterative solver
           615 MiB given to the printing process from OS
             0 MiB allocation reported by mallinfo(arena+hblkhd)
        324148 MiB available memory on the node where the printing process lives
------------------
     ethr =  1.36E-10,  avg # of iterations =  2.0

     negative rho (up, down):  4.425E-02 0.000E+00

     total cpu time spent up to now is      178.5 secs

     total energy              =    -111.14734499 Ry
     estimated scf accuracy    <          7.4E-09 Ry

     iteration #  3     ecut=    60.00 Ry     beta= 0.40
     Davidson diagonalization with overlap

---- Real-time Memory Report at c_bands before calling an iterative solver
           615 MiB given to the printing process from OS
             0 MiB allocation reported by mallinfo(arena+hblkhd)
        324148 MiB available memory on the node where the printing process lives
------------------
     ethr =  2.94E-11,  avg # of iterations =  2.0

     negative rho (up, down):  4.425E-02 0.000E+00

     total cpu time spent up to now is      179.2 secs

     total energy              =    -111.14734499 Ry
     estimated scf accuracy    <          6.3E-10 Ry

     iteration #  4     ecut=    60.00 Ry     beta= 0.40
     Davidson diagonalization with overlap

---- Real-time Memory Report at c_bands before calling an iterative solver
           615 MiB given to the printing process from OS
             0 MiB allocation reported by mallinfo(arena+hblkhd)
        324148 MiB available memory on the node where the printing process lives
------------------
     ethr =  2.51E-12,  avg # of iterations =  4.0

     negative rho (up, down):  4.425E-02 0.000E+00

     total cpu time spent up to now is      179.8 secs

     End of self-consistent calculation

          k = 0.0000 0.0000 0.0000 ( 95217 PWs)   bands (ev):

   -21.6089 -20.7868 -20.7845 -13.1302 -10.5083 -10.5034  -9.3640  -8.6841
    -8.6782  -8.1742  -8.1695  -7.8105  -5.1169  -1.1740  -0.5862  -0.5018
    -0.3993

     occupation numbers 
     1.0000   1.0000   1.0000   1.0000   1.0000   1.0000   1.0000   1.0000
     1.0000   1.0000   1.0000   1.0000   0.5000   0.0000   0.0000   0.0000
     0.0000

     the Fermi energy is    -5.0891 ev

!    total energy              =    -111.14734499 Ry
     estimated scf accuracy    <          1.1E-10 Ry
     smearing contrib. (-TS)   =      -0.00482420 Ry
     internal energy E=F+TS    =    -111.14252079 Ry

     The total energy is F=E-TS. E is the sum of the following terms:
     one-electron contribution =    -399.31273283 Ry
     hartree contribution      =     201.85695559 Ry
     xc contribution           =     -33.93601049 Ry
     ewald contribution        =     120.25346608 Ry
     Dispersion Correction     =      -0.00419914 Ry
     one-center paw contrib.   =       0.00000000 Ry
      -> PAW hartree energy AE =       0.00000000 Ry
      -> PAW hartree energy PS =       0.00000000 Ry
      -> PAW xc energy AE      =       0.00000000 Ry
      -> PAW xc energy PS      =       0.00000000 Ry
      -> total E_H with PAW    =     201.85695559 Ry
      -> total E_XC with PAW   =     -33.93601049 Ry

     convergence has been achieved in   4 iterations

     negative rho (up, down):  4.425E-02 0.000E+00

     Forces acting on atoms (cartesian axes, Ry/au):

     atom    1 type  3   force =     0.00002542   -0.00007927    0.00011954
     atom    2 type  4   force =    -0.00012307    0.00008374   -0.00037828
     atom    3 type  4   force =    -0.00003311   -0.00007654   -0.00001522
     atom    4 type  4   force =     0.00013076    0.00007207    0.00027396
     The non-local contrib.  to forces
     atom    1 type  3   force =    -0.00268094    0.02721839    0.15400430
     atom    2 type  4   force =    -0.07281725   -0.19144218   -0.03471073
     atom    3 type  4   force =     0.19545722    0.01245068   -0.06835548
     atom    4 type  4   force =    -0.11676871    0.14277295   -0.09587659
     The ionic contribution  to forces
     atom    1 type  3   force =     0.03161440   -0.60045850   -3.94313390
     atom    2 type  4   force =     2.64389571    5.86271374   -0.18608460
     atom    3 type  4   force =    -6.83987855   -0.59621571    1.36813771
     atom    4 type  4   force =     4.16436844   -4.66603953    2.76108079
     The local contribution  to forces
     atom    1 type  3   force =    -0.02907752    0.57486264    3.79909838
     atom    2 type  4   force =    -2.57116192   -5.67129178    0.22066065
     atom    3 type  4   force =     6.64441578    0.58372548   -1.29962967
     atom    4 type  4   force =    -4.04746539    4.52350625   -2.66473202
     The core correction contribution to forces
     atom    1 type  3   force =     0.00016583   -0.00169001   -0.00982000
     atom    2 type  4   force =    -0.00031051   -0.00057981   -0.00015948
     atom    3 type  4   force =     0.00064856    0.00005835   -0.00018679
     atom    4 type  4   force =    -0.00040393    0.00040944   -0.00030648
     The Hubbard contrib.    to forces
     atom    1 type  3   force =     0.00000000    0.00000000    0.00000000
     atom    2 type  4   force =     0.00000000    0.00000000    0.00000000
     atom    3 type  4   force =     0.00000000    0.00000000    0.00000000
     atom    4 type  4   force =     0.00000000    0.00000000    0.00000000
     The SCF correction term to forces
     atom    1 type  3   force =    -0.00000067    0.00000211    0.00000320
     atom    2 type  4   force =    -0.00000053   -0.00000201    0.00000018
     atom    3 type  4   force =     0.00000130   -0.00000038    0.00000288
     atom    4 type  4   force =     0.00000020    0.00000003    0.00000794

     Dispersion contribution to forces:
     atom    1 type  3   force =     0.00000470   -0.00001387   -0.00003236
     atom    2 type  4   force =     0.00027181    0.00068582   -0.00008423
     atom    3 type  4   force =    -0.00067702   -0.00009492    0.00001620
     atom    4 type  4   force =     0.00040051   -0.00057703    0.00010040

     Total force =     0.000539     Total SCF correction =     0.000010

     Total Dispersion Force =     0.001234


     Computing stress (Cartesian axis) and pressure


     negative rho (up, down):  4.425E-02 0.000E+00
          total   stress  (Ry/bohr**3)                   (kbar)     P=        0.01
  -0.00000001   0.00000003   0.00000000           -0.00        0.00        0.00
   0.00000003   0.00000030   0.00000000            0.00        0.04        0.00
   0.00000000   0.00000000   0.00000000            0.00        0.00        0.00

     kinetic stress (kbar)    145.46     -0.01     -0.12
                               -0.01    145.74      1.25
                               -0.12      1.25    152.46

     local   stress (kbar)  -1980.63     -2.12     -5.83
                               -2.12  -2100.54     49.02
                               -5.83     49.02   1417.88

     nonloc. stress (kbar)    136.30      0.00      0.01
                                0.00    136.30     -0.12
                                0.01     -0.12    135.64

     hartree stress (kbar)    940.68      0.94      2.34
                                0.94    998.72    -18.92
                                2.34    -18.92   -716.06

     exc-cor stress (kbar)     43.46      0.00      0.00
                                0.00     43.45     -0.03
                                0.00     -0.03     43.31

     corecor stress (kbar)    -90.35     -0.00     -0.00
                               -0.00    -90.35      0.02
                               -0.00      0.02    -90.26

     ewald   stress (kbar)    805.06      1.19      3.60
                                1.19    866.71    -31.22
                                3.60    -31.22   -942.98

     hubbard stress (kbar)      0.00      0.00      0.00
                                0.00      0.00      0.00
                                0.00      0.00      0.00

     DFT-D   stress (kbar)      0.02      0.00      0.00
                                0.00      0.01     -0.00
                                0.00     -0.00      0.00

     XDM     stress (kbar)      0.00      0.00      0.00
                                0.00      0.00      0.00
                                0.00      0.00      0.00

     dft-nl  stress (kbar)      0.00      0.00      0.00
                                0.00      0.00      0.00
                                0.00      0.00      0.00

     TS-vdW  stress (kbar)      0.00      0.00      0.00
                                0.00      0.00      0.00
                                0.00      0.00      0.00


                                0.00      0.00      0.00
                                0.00      0.00      0.00


                                0.00      0.00      0.00

     Energy error            =      4.9E-07 Ry
     Gradient error          =      3.8E-04 Ry/Bohr

     number of scf cycles    =  14
     number of bfgs steps    =  13

     energy             old  =    -111.1473444986 Ry
     energy             new  =    -111.1473449858 Ry

     CASE: energy            _new < energy            _old

     new trust radius        =       0.0013668218 bohr
     new conv_thr            =       0.0000000002 Ry


ATOMIC_POSITIONS (angstrom)
Si            5.0174520873        4.6152714936       20.1285103358
Cl            5.7533004254        6.4988719794       20.5081733920
Cl            3.0837297876        4.4932561782       20.8221762195
Cl            6.1775176997        3.2216503489       21.1024200527



     Writing output data file ./out/aiida.save/
     NEW-OLD atomic charge density approx. for the potential

     negative rho (up, down):  4.424E-02 0.000E+00

     total cpu time spent up to now is      187.6 secs

     Self-consistent Calculation

     iteration #  1     ecut=    60.00 Ry     beta= 0.40
     Davidson diagonalization with overlap

---- Real-time Memory Report at c_bands before calling an iterative solver
           619 MiB given to the printing process from OS
             0 MiB allocation reported by mallinfo(arena+hblkhd)
        324153 MiB available memory on the node where the printing process lives
------------------
     ethr =  1.00E-06,  avg # of iterations =  2.0

     Threshold (ethr) on eigenvalues was too large:
     Diagonalizing with lowered threshold

     Davidson diagonalization with overlap

---- Real-time Memory Report at c_bands before calling an iterative solver
           619 MiB given to the printing process from OS
             0 MiB allocation reported by mallinfo(arena+hblkhd)
        324145 MiB available memory on the node where the printing process lives
------------------
     ethr =  1.68E-09,  avg # of iterations =  6.0

     negative rho (up, down):  4.424E-02 0.000E+00

     total cpu time spent up to now is      188.7 secs

     total energy              =    -111.14734577 Ry
     estimated scf accuracy    <       0.00000005 Ry

     iteration #  2     ecut=    60.00 Ry     beta= 0.40
     Davidson diagonalization with overlap

---- Real-time Memory Report at c_bands before calling an iterative solver
           619 MiB given to the printing process from OS
             0 MiB allocation reported by mallinfo(arena+hblkhd)
        324144 MiB available memory on the node where the printing process lives
------------------
     ethr =  2.19E-10,  avg # of iterations =  2.0

     negative rho (up, down):  4.424E-02 0.000E+00

     total cpu time spent up to now is      189.4 secs

     total energy              =    -111.14734577 Ry
     estimated scf accuracy    <       0.00000001 Ry

     iteration #  3     ecut=    60.00 Ry     beta= 0.40
     Davidson diagonalization with overlap

---- Real-time Memory Report at c_bands before calling an iterative solver
           619 MiB given to the printing process from OS
             0 MiB allocation reported by mallinfo(arena+hblkhd)
        324144 MiB available memory on the node where the printing process lives
------------------
     ethr =  5.32E-11,  avg # of iterations =  2.0

     negative rho (up, down):  4.424E-02 0.000E+00

     total cpu time spent up to now is      190.0 secs

     total energy              =    -111.14734578 Ry
     estimated scf accuracy    <          1.1E-09 Ry

     iteration #  4     ecut=    60.00 Ry     beta= 0.40
     Davidson diagonalization with overlap

---- Real-time Memory Report at c_bands before calling an iterative solver
           619 MiB given to the printing process from OS
             0 MiB allocation reported by mallinfo(arena+hblkhd)
        324143 MiB available memory on the node where the printing process lives
------------------
     ethr =  4.21E-12,  avg # of iterations =  4.0

     negative rho (up, down):  4.425E-02 0.000E+00

     total cpu time spent up to now is      190.8 secs

     total energy              =    -111.14734578 Ry
     estimated scf accuracy    <          2.4E-10 Ry

     iteration #  5     ecut=    60.00 Ry     beta= 0.40
     Davidson diagonalization with overlap

---- Real-time Memory Report at c_bands before calling an iterative solver
           619 MiB given to the printing process from OS
             0 MiB allocation reported by mallinfo(arena+hblkhd)
        324143 MiB available memory on the node where the printing process lives
------------------
     ethr =  9.76E-13,  avg # of iterations =  2.0

     negative rho (up, down):  4.425E-02 0.000E+00

     total cpu time spent up to now is      191.4 secs

     End of self-consistent calculation

          k = 0.0000 0.0000 0.0000 ( 95217 PWs)   bands (ev):

   -21.6089 -20.7865 -20.7843 -13.1301 -10.5081 -10.5033  -9.3641  -8.6840
    -8.6782  -8.1737  -8.1692  -7.8102  -5.1179  -1.1726  -0.5868  -0.5021
    -0.3993

     occupation numbers 
     1.0000   1.0000   1.0000   1.0000   1.0000   1.0000   1.0000   1.0000
     1.0000   1.0000   1.0000   1.0000   0.5000   0.0000   0.0000   0.0000
     0.0000

     the Fermi energy is    -5.0901 ev

!    total energy              =    -111.14734578 Ry
     estimated scf accuracy    <          2.8E-11 Ry
     smearing contrib. (-TS)   =      -0.00482420 Ry
     internal energy E=F+TS    =    -111.14252158 Ry

     The total energy is F=E-TS. E is the sum of the following terms:
     one-electron contribution =    -399.31519069 Ry
     hartree contribution      =     201.85832288 Ry
     xc contribution           =     -33.93602972 Ry
     ewald contribution        =     120.25457455 Ry
     Dispersion Correction     =      -0.00419860 Ry
     one-center paw contrib.   =       0.00000000 Ry
      -> PAW hartree energy AE =       0.00000000 Ry
      -> PAW hartree energy PS =       0.00000000 Ry
      -> PAW xc energy AE      =       0.00000000 Ry
      -> PAW xc energy PS      =       0.00000000 Ry
      -> total E_H with PAW    =     201.85832288 Ry
      -> total E_XC with PAW   =     -33.93602972 Ry

     convergence has been achieved in   5 iterations

     negative rho (up, down):  4.425E-02 0.000E+00

     Forces acting on atoms (cartesian axes, Ry/au):

     atom    1 type  3   force =     0.00001759   -0.00005643    0.00019401
     atom    2 type  4   force =    -0.00010774    0.00008856   -0.00040749
     atom    3 type  4   force =    -0.00005558   -0.00009056   -0.00004185
     atom    4 type  4   force =     0.00014573    0.00005842    0.00025533
     The non-local contrib.  to forces
     atom    1 type  3   force =    -0.00267944    0.02725661    0.15389828
     atom    2 type  4   force =    -0.07274316   -0.19145213   -0.03474338
     atom    3 type  4   force =     0.19540742    0.01240770   -0.06845423
     atom    4 type  4   force =    -0.11674481    0.14268210   -0.09602266
     The ionic contribution  to forces
     atom    1 type  3   force =     0.03213332   -0.60209456   -3.94492311
     atom    2 type  4   force =     2.64313116    5.86367064   -0.18851877
     atom    3 type  4   force =    -6.84034685   -0.59641226    1.36899504
     atom    4 type  4   force =     4.16508237   -4.66516381    2.76444684
     The local contribution  to forces
     atom    1 type  3   force =    -0.02960544    0.57648784    3.80105652
     atom    2 type  4   force =    -2.57046075   -5.67224309    0.22309600
     atom    3 type  4   force =     6.64491854    0.58395198   -1.30041107
     atom    4 type  4   force =    -4.04818929    4.52271229   -2.66795561
     The core correction contribution to forces
     atom    1 type  3   force =     0.00016430   -0.00169058   -0.00980345
     atom    2 type  4   force =    -0.00031145   -0.00058026   -0.00015752
     atom    3 type  4   force =     0.00065000    0.00005909   -0.00018497
     atom    4 type  4   force =    -0.00040484    0.00041033   -0.00030474
     The Hubbard contrib.    to forces
     atom    1 type  3   force =     0.00000000    0.00000000    0.00000000
     atom    2 type  4   force =     0.00000000    0.00000000    0.00000000
     atom    3 type  4   force =     0.00000000    0.00000000    0.00000000
     atom    4 type  4   force =     0.00000000    0.00000000    0.00000000
     The SCF correction term to forces
     atom    1 type  3   force =     0.00000038   -0.00000160   -0.00000145
     atom    2 type  4   force =     0.00000364    0.00000619    0.00000128
     atom    3 type  4   force =    -0.00000499   -0.00000124   -0.00000252
     atom    4 type  4   force =     0.00000078   -0.00000427   -0.00000890

     Dispersion contribution to forces:
     atom    1 type  3   force =     0.00000470   -0.00001390   -0.00003238
     atom    2 type  4   force =     0.00027304    0.00068747   -0.00008470
     atom    3 type  4   force =    -0.00067948   -0.00009558    0.00001629
     atom    4 type  4   force =     0.00040174   -0.00057798    0.00010079

     Total force =     0.000574     Total SCF correction =     0.000014

     Total Dispersion Force =     0.001238


     Computing stress (Cartesian axis) and pressure


     negative rho (up, down):  4.425E-02 0.000E+00
          total   stress  (Ry/bohr**3)                   (kbar)     P=        0.01
   0.00000000   0.00000003   0.00000000            0.00        0.00        0.00
   0.00000003   0.00000030   0.00000000            0.00        0.04        0.00
   0.00000000   0.00000000  -0.00000000            0.00        0.00       -0.00

     kinetic stress (kbar)    145.47     -0.01     -0.12
                               -0.01    145.75      1.25
                               -0.12      1.25    152.45

     local   stress (kbar)  -1980.60     -2.12     -5.84
                               -2.12  -2100.48     49.11
                               -5.84     49.11   1417.77

     nonloc. stress (kbar)    136.30      0.00      0.01
                                0.00    136.30     -0.12
                                0.01     -0.12    135.64

     hartree stress (kbar)    940.67      0.93      2.35
                                0.93    998.69    -18.96
                                2.35    -18.96   -716.01

     exc-cor stress (kbar)     43.46      0.00      0.00
                                0.00     43.45     -0.03
                                0.00     -0.03     43.31

     corecor stress (kbar)    -90.35     -0.00     -0.00
                               -0.00    -90.35      0.02
                               -0.00      0.02    -90.26

     ewald   stress (kbar)    805.03      1.19      3.61
                                1.19    866.67    -31.28
                                3.61    -31.28   -942.91

     hubbard stress (kbar)      0.00      0.00      0.00
                                0.00      0.00      0.00
                                0.00      0.00      0.00

     DFT-D   stress (kbar)      0.02      0.00      0.00
                                0.00      0.01     -0.00
                                0.00     -0.00      0.00

     XDM     stress (kbar)      0.00      0.00      0.00
                                0.00      0.00      0.00
                                0.00      0.00      0.00

     dft-nl  stress (kbar)      0.00      0.00      0.00
                                0.00      0.00      0.00
                                0.00      0.00      0.00

     TS-vdW  stress (kbar)      0.00      0.00      0.00
                                0.00      0.00      0.00
                                0.00      0.00      0.00


                                0.00      0.00      0.00
                                0.00      0.00      0.00


                                0.00      0.00      0.00

     Energy error            =      7.9E-07 Ry
     Gradient error          =      4.1E-04 Ry/Bohr

     number of scf cycles    =  15
     number of bfgs steps    =  14

     energy             old  =    -111.1473449858 Ry
     energy             new  =    -111.1473457762 Ry

     CASE: energy            _new < energy            _old

     new trust radius        =       0.0020502328 bohr
     new conv_thr            =       0.0000000002 Ry


ATOMIC_POSITIONS (angstrom)
Si            5.0175546977        4.6149004008       20.1282698081
Cl            5.7527963414        6.4988720497       20.5073189507
Cl            3.0839649485        4.4931178531       20.8223277946
Cl            6.1776840124        3.2221596965       21.1033634467



     Writing output data file ./out/aiida.save/
     NEW-OLD atomic charge density approx. for the potential

     negative rho (up, down):  4.423E-02 0.000E+00

     total cpu time spent up to now is      199.2 secs

     Self-consistent Calculation

     iteration #  1     ecut=    60.00 Ry     beta= 0.40
     Davidson diagonalization with overlap

---- Real-time Memory Report at c_bands before calling an iterative solver
           620 MiB given to the printing process from OS
             0 MiB allocation reported by mallinfo(arena+hblkhd)
        324148 MiB available memory on the node where the printing process lives
------------------
     ethr =  1.00E-06,  avg # of iterations =  2.0

     Threshold (ethr) on eigenvalues was too large:
     Diagonalizing with lowered threshold

     Davidson diagonalization with overlap

---- Real-time Memory Report at c_bands before calling an iterative solver
           620 MiB given to the printing process from OS
             0 MiB allocation reported by mallinfo(arena+hblkhd)
        324140 MiB available memory on the node where the printing process lives
------------------
     ethr =  3.51E-09,  avg # of iterations =  6.0

     negative rho (up, down):  4.423E-02 0.000E+00

     total cpu time spent up to now is      200.3 secs

     total energy              =    -111.14734699 Ry
     estimated scf accuracy    <       0.00000011 Ry

     iteration #  2     ecut=    60.00 Ry     beta= 0.40
     Davidson diagonalization with overlap

---- Real-time Memory Report at c_bands before calling an iterative solver
           620 MiB given to the printing process from OS
             0 MiB allocation reported by mallinfo(arena+hblkhd)
        324140 MiB available memory on the node where the printing process lives
------------------
     ethr =  4.32E-10,  avg # of iterations =  1.0

     negative rho (up, down):  4.423E-02 0.000E+00

     total cpu time spent up to now is      201.0 secs

     total energy              =    -111.14734699 Ry
     estimated scf accuracy    <       0.00000003 Ry

     iteration #  3     ecut=    60.00 Ry     beta= 0.40
     Davidson diagonalization with overlap

---- Real-time Memory Report at c_bands before calling an iterative solver
           620 MiB given to the printing process from OS
             0 MiB allocation reported by mallinfo(arena+hblkhd)
        324139 MiB available memory on the node where the printing process lives
------------------
     ethr =  1.05E-10,  avg # of iterations =  2.0

     negative rho (up, down):  4.423E-02 0.000E+00

     total cpu time spent up to now is      201.7 secs

     total energy              =    -111.14734700 Ry
     estimated scf accuracy    <          2.1E-09 Ry

     iteration #  4     ecut=    60.00 Ry     beta= 0.40
     Davidson diagonalization with overlap

---- Real-time Memory Report at c_bands before calling an iterative solver
           620 MiB given to the printing process from OS
             0 MiB allocation reported by mallinfo(arena+hblkhd)
        324139 MiB available memory on the node where the printing process lives
------------------
     ethr =  8.28E-12,  avg # of iterations =  4.0

     negative rho (up, down):  4.423E-02 0.000E+00

     total cpu time spent up to now is      202.4 secs

     total energy              =    -111.14734700 Ry
     estimated scf accuracy    <          3.0E-10 Ry

     iteration #  5     ecut=    60.00 Ry     beta= 0.40
     Davidson diagonalization with overlap

---- Real-time Memory Report at c_bands before calling an iterative solver
           620 MiB given to the printing process from OS
             0 MiB allocation reported by mallinfo(arena+hblkhd)
        324138 MiB available memory on the node where the printing process lives
------------------
     ethr =  1.20E-12,  avg # of iterations =  2.0

     negative rho (up, down):  4.423E-02 0.000E+00

     total cpu time spent up to now is      203.0 secs

     End of self-consistent calculation

          k = 0.0000 0.0000 0.0000 ( 95217 PWs)   bands (ev):

   -21.6089 -20.7862 -20.7842 -13.1301 -10.5078 -10.5033  -9.3641  -8.6840
    -8.6781  -8.1732  -8.1688  -7.8098  -5.1190  -1.1711  -0.5874  -0.5025
    -0.3993

     occupation numbers 
     1.0000   1.0000   1.0000   1.0000   1.0000   1.0000   1.0000   1.0000
     1.0000   1.0000   1.0000   1.0000   0.5000   0.0000   0.0000   0.0000
     0.0000

     the Fermi energy is    -5.0912 ev

!    total energy              =    -111.14734700 Ry
     estimated scf accuracy    <          3.5E-11 Ry
     smearing contrib. (-TS)   =      -0.00482420 Ry
     internal energy E=F+TS    =    -111.14252280 Ry

     The total energy is F=E-TS. E is the sum of the following terms:
     one-electron contribution =    -399.31688449 Ry
     hartree contribution      =     201.85930709 Ry
     xc contribution           =     -33.93604717 Ry
     ewald contribution        =     120.25529975 Ry
     Dispersion Correction     =      -0.00419797 Ry
     one-center paw contrib.   =       0.00000000 Ry
      -> PAW hartree energy AE =       0.00000000 Ry
      -> PAW hartree energy PS =       0.00000000 Ry
      -> PAW xc energy AE      =       0.00000000 Ry
      -> PAW xc energy PS      =       0.00000000 Ry
      -> total E_H with PAW    =     201.85930709 Ry
      -> total E_XC with PAW   =     -33.93604717 Ry

     convergence has been achieved in   5 iterations

     negative rho (up, down):  4.423E-02 0.000E+00

     Forces acting on atoms (cartesian axes, Ry/au):

     atom    1 type  3   force =     0.00000735   -0.00003092    0.00027708
     atom    2 type  4   force =    -0.00008602    0.00009317   -0.00043945
     atom    3 type  4   force =    -0.00008256   -0.00010778   -0.00006972
     atom    4 type  4   force =     0.00016123    0.00004553    0.00023209
     The non-local contrib.  to forces
     atom    1 type  3   force =    -0.00267818    0.02732349    0.15377947
     atom    2 type  4   force =    -0.07263968   -0.19148249   -0.03475235
     atom    3 type  4   force =     0.19535664    0.01234811   -0.06856432
     atom    4 type  4   force =    -0.11672179    0.14256879   -0.09619911
     The ionic contribution  to forces
     atom    1 type  3   force =     0.03291541   -0.60451414   -3.94675696
     atom    2 type  4   force =     2.64188105    5.86493697   -0.19263811
     atom    3 type  4   force =    -6.84088405   -0.59675679    1.37001152
     atom    4 type  4   force =     4.16608759   -4.66366603    2.76938355
     The local contribution  to forces
     atom    1 type  3   force =    -0.03039679    0.57886832    3.80307374
     atom    2 type  4   force =    -2.56929345   -5.67347492    0.22719065
     atom    3 type  4   force =     6.64547863    0.58433924   -1.30134753
     atom    4 type  4   force =    -4.04920104    4.52131389   -2.67274006
     The core correction contribution to forces
     atom    1 type  3   force =     0.00016211   -0.00169262   -0.00978534
     atom    2 type  4   force =    -0.00031260   -0.00058037   -0.00015504
     atom    3 type  4   force =     0.00065135    0.00006029   -0.00018295
     atom    4 type  4   force =    -0.00040585    0.00041085   -0.00030343
     The Hubbard contrib.    to forces
     atom    1 type  3   force =     0.00000000    0.00000000    0.00000000
     atom    2 type  4   force =     0.00000000    0.00000000    0.00000000
     atom    3 type  4   force =     0.00000000    0.00000000    0.00000000
     atom    4 type  4   force =     0.00000000    0.00000000    0.00000000
     The SCF correction term to forces
     atom    1 type  3   force =     0.00000033   -0.00000162   -0.00000096
     atom    2 type  4   force =     0.00000433    0.00000518    0.00000119
     atom    3 type  4   force =    -0.00000256   -0.00000173   -0.00000237
     atom    4 type  4   force =    -0.00000050   -0.00000282   -0.00000964

     Dispersion contribution to forces:
     atom    1 type  3   force =     0.00000471   -0.00001395   -0.00003239
     atom    2 type  4   force =     0.00027457    0.00068920   -0.00008530
     atom    3 type  4   force =    -0.00068235   -0.00009650    0.00001642
     atom    4 type  4   force =     0.00040307   -0.00057875    0.00010127

     Total force =     0.000626     Total SCF correction =     0.000013

     Total Dispersion Force =     0.001242


     Computing stress (Cartesian axis) and pressure


     negative rho (up, down):  4.423E-02 0.000E+00
          total   stress  (Ry/bohr**3)                   (kbar)     P=        0.01
   0.00000001   0.00000003   0.00000001            0.00        0.00        0.00
   0.00000003   0.00000030   0.00000000            0.00        0.04        0.00
   0.00000001   0.00000000  -0.00000001            0.00        0.00       -0.00

     kinetic stress (kbar)    145.47     -0.00     -0.12
                               -0.00    145.75      1.25
                               -0.12      1.25    152.45

     local   stress (kbar)  -1980.55     -2.11     -5.86
                               -2.11  -2100.39     49.25
                               -5.86     49.25   1417.63

     nonloc. stress (kbar)    136.30      0.00      0.01
                                0.00    136.30     -0.12
                                0.01     -0.12    135.64

     hartree stress (kbar)    940.65      0.93      2.36
                                0.93    998.66    -19.01
                                2.36    -19.01   -715.95

     exc-cor stress (kbar)     43.46      0.00      0.00
                                0.00     43.45     -0.03
                                0.00     -0.03     43.31

     corecor stress (kbar)    -90.35     -0.00     -0.00
                               -0.00    -90.35      0.02
                               -0.00      0.02    -90.26

     ewald   stress (kbar)    805.00      1.18      3.62
                                1.18    866.61    -31.36
                                3.62    -31.36   -942.82

     hubbard stress (kbar)      0.00      0.00      0.00
                                0.00      0.00      0.00
                                0.00      0.00      0.00

     DFT-D   stress (kbar)      0.02      0.00      0.00
                                0.00      0.01     -0.00
                                0.00     -0.00      0.00

     XDM     stress (kbar)      0.00      0.00      0.00
                                0.00      0.00      0.00
                                0.00      0.00      0.00

     dft-nl  stress (kbar)      0.00      0.00      0.00
                                0.00      0.00      0.00
                                0.00      0.00      0.00

     TS-vdW  stress (kbar)      0.00      0.00      0.00
                                0.00      0.00      0.00
                                0.00      0.00      0.00


                                0.00      0.00      0.00
                                0.00      0.00      0.00


                                0.00      0.00      0.00

     Energy error            =      1.2E-06 Ry
     Gradient error          =      4.4E-04 Ry/Bohr

     number of scf cycles    =  16
     number of bfgs steps    =  15

     energy             old  =    -111.1473457762 Ry
     energy             new  =    -111.1473469956 Ry

     CASE: energy            _new < energy            _old

     new trust radius        =       0.0030753491 bohr
     new conv_thr            =       0.0000000002 Ry


ATOMIC_POSITIONS (angstrom)
Si            5.0177070083        4.6143534369       20.1280143582
Cl            5.7520495200        6.4989125632       20.5059575422
Cl            3.0842684793        4.4928870118       20.8225233234
Cl            6.1779749924        3.2228969881       21.1047847762



     Writing output data file ./out/aiida.save/
     NEW-OLD atomic charge density approx. for the potential

     negative rho (up, down):  4.422E-02 0.000E+00

     total cpu time spent up to now is      210.8 secs

     Self-consistent Calculation

     iteration #  1     ecut=    60.00 Ry     beta= 0.40
     Davidson diagonalization with overlap

---- Real-time Memory Report at c_bands before calling an iterative solver
           622 MiB given to the printing process from OS
             0 MiB allocation reported by mallinfo(arena+hblkhd)
        324141 MiB available memory on the node where the printing process lives
------------------
     ethr =  1.00E-06,  avg # of iterations =  3.0

     Threshold (ethr) on eigenvalues was too large:
     Diagonalizing with lowered threshold

     Davidson diagonalization with overlap

---- Real-time Memory Report at c_bands before calling an iterative solver
           622 MiB given to the printing process from OS
             0 MiB allocation reported by mallinfo(arena+hblkhd)
        324129 MiB available memory on the node where the printing process lives
------------------
     ethr =  4.81E-09,  avg # of iterations =  6.0

     negative rho (up, down):  4.422E-02 0.000E+00

     total cpu time spent up to now is      211.9 secs

     total energy              =    -111.14734884 Ry
     estimated scf accuracy    <       0.00000023 Ry

     iteration #  2     ecut=    60.00 Ry     beta= 0.40
     Davidson diagonalization with overlap

---- Real-time Memory Report at c_bands before calling an iterative solver
           622 MiB given to the printing process from OS
             0 MiB allocation reported by mallinfo(arena+hblkhd)
        324108 MiB available memory on the node where the printing process lives
------------------
     ethr =  9.31E-10,  avg # of iterations =  1.0

     negative rho (up, down):  4.423E-02 0.000E+00

     total cpu time spent up to now is      212.6 secs

     total energy              =    -111.14734884 Ry
     estimated scf accuracy    <       0.00000006 Ry

     iteration #  3     ecut=    60.00 Ry     beta= 0.40
     Davidson diagonalization with overlap

---- Real-time Memory Report at c_bands before calling an iterative solver
           622 MiB given to the printing process from OS
             0 MiB allocation reported by mallinfo(arena+hblkhd)
        324106 MiB available memory on the node where the printing process lives
------------------
     ethr =  2.23E-10,  avg # of iterations =  2.0

     negative rho (up, down):  4.423E-02 0.000E+00

     total cpu time spent up to now is      213.2 secs

     total energy              =    -111.14734885 Ry
     estimated scf accuracy    <          4.7E-09 Ry

     iteration #  4     ecut=    60.00 Ry     beta= 0.40
     Davidson diagonalization with overlap

---- Real-time Memory Report at c_bands before calling an iterative solver
           622 MiB given to the printing process from OS
             0 MiB allocation reported by mallinfo(arena+hblkhd)
        324107 MiB available memory on the node where the printing process lives
------------------
     ethr =  1.88E-11,  avg # of iterations =  4.0

     negative rho (up, down):  4.423E-02 0.000E+00

     total cpu time spent up to now is      213.9 secs

     total energy              =    -111.14734885 Ry
     estimated scf accuracy    <          5.6E-10 Ry

     iteration #  5     ecut=    60.00 Ry     beta= 0.40
     Davidson diagonalization with overlap

---- Real-time Memory Report at c_bands before calling an iterative solver
           622 MiB given to the printing process from OS
             0 MiB allocation reported by mallinfo(arena+hblkhd)
        324107 MiB available memory on the node where the printing process lives
------------------
     ethr =  2.23E-12,  avg # of iterations =  4.0

     negative rho (up, down):  4.423E-02 0.000E+00

     total cpu time spent up to now is      214.6 secs

     End of self-consistent calculation

          k = 0.0000 0.0000 0.0000 ( 95217 PWs)   bands (ev):

   -21.6089 -20.7858 -20.7840 -13.1300 -10.5074 -10.5032  -9.3642  -8.6839
    -8.6780  -8.1725  -8.1684  -7.8094  -5.1203  -1.1693  -0.5882  -0.5029
    -0.3992

     occupation numbers 
     1.0000   1.0000   1.0000   1.0000   1.0000   1.0000   1.0000   1.0000
     1.0000   1.0000   1.0000   1.0000   0.5000   0.0000   0.0000   0.0000
     0.0000

     the Fermi energy is    -5.0925 ev

!    total energy              =    -111.14734885 Ry
     estimated scf accuracy    <          7.3E-11 Ry
     smearing contrib. (-TS)   =      -0.00482420 Ry
     internal energy E=F+TS    =    -111.14252465 Ry

     The total energy is F=E-TS. E is the sum of the following terms:
     one-electron contribution =    -399.31745619 Ry
     hartree contribution      =     201.85974620 Ry
     xc contribution           =     -33.93606293 Ry
     ewald contribution        =     120.25544551 Ry
     Dispersion Correction     =      -0.00419723 Ry
     one-center paw contrib.   =       0.00000000 Ry
      -> PAW hartree energy AE =       0.00000000 Ry
      -> PAW hartree energy PS =       0.00000000 Ry
      -> PAW xc energy AE      =       0.00000000 Ry
      -> PAW xc energy PS      =       0.00000000 Ry
      -> total E_H with PAW    =     201.85974620 Ry
      -> total E_XC with PAW   =     -33.93606293 Ry

     convergence has been achieved in   5 iterations

     negative rho (up, down):  4.423E-02 0.000E+00

     Forces acting on atoms (cartesian axes, Ry/au):

     atom    1 type  3   force =    -0.00000708    0.00000069    0.00037351
     atom    2 type  4   force =    -0.00005655    0.00009583   -0.00047584
     atom    3 type  4   force =    -0.00011542   -0.00013139   -0.00010284
     atom    4 type  4   force =     0.00017905    0.00003487    0.00020517
     The non-local contrib.  to forces
     atom    1 type  3   force =    -0.00267687    0.02743186    0.15363704
     atom    2 type  4   force =    -0.07248982   -0.19153498   -0.03471990
     atom    3 type  4   force =     0.19529366    0.01226929   -0.06869243
     atom    4 type  4   force =    -0.11670096    0.14241693   -0.09643596
     The ionic contribution  to forces
     atom    1 type  3   force =     0.03408139   -0.60809634   -3.94868666
     atom    2 type  4   force =     2.63990790    5.86665792   -0.19926190
     atom    3 type  4   force =    -6.84151989   -0.59731856    1.37127976
     atom    4 type  4   force =     4.16753060   -4.66124302    2.77666880
     The local contribution  to forces
     atom    1 type  3   force =    -0.03157594    0.58237895    3.80522145
     atom    2 type  4   force =    -2.56744402   -5.67514413    0.23374221
     atom    3 type  4   force =     6.64614965    0.58495904   -1.30252265
     atom    4 type  4   force =    -4.05064723    4.51903269   -2.67981312
     The core correction contribution to forces
     atom    1 type  3   force =     0.00015886   -0.00169667   -0.00976423
     atom    2 type  4   force =    -0.00031420   -0.00058051   -0.00015215
     atom    3 type  4   force =     0.00065316    0.00006184   -0.00018059
     atom    4 type  4   force =    -0.00040700    0.00041118   -0.00030177
     The Hubbard contrib.    to forces
     atom    1 type  3   force =     0.00000000    0.00000000    0.00000000
     atom    2 type  4   force =     0.00000000    0.00000000    0.00000000
     atom    3 type  4   force =     0.00000000    0.00000000    0.00000000
     atom    4 type  4   force =     0.00000000    0.00000000    0.00000000
     The SCF correction term to forces
     atom    1 type  3   force =     0.00000119   -0.00000287   -0.00000135
     atom    2 type  4   force =     0.00000748    0.00000668    0.00000231
     atom    3 type  4   force =    -0.00000573   -0.00000501   -0.00000323
     atom    4 type  4   force =    -0.00000051   -0.00000339   -0.00001434

     Dispersion contribution to forces:
     atom    1 type  3   force =     0.00000471   -0.00001402   -0.00003241
     atom    2 type  4   force =     0.00027654    0.00069108   -0.00008608
     atom    3 type  4   force =    -0.00068584   -0.00009777    0.00001661
     atom    4 type  4   force =     0.00040458   -0.00057929    0.00010188

     Total force =     0.000703     Total SCF correction =     0.000020

     Total Dispersion Force =     0.001246


     Computing stress (Cartesian axis) and pressure


     negative rho (up, down):  4.423E-02 0.000E+00
          total   stress  (Ry/bohr**3)                   (kbar)     P=        0.02
   0.00000002   0.00000004   0.00000001            0.00        0.01        0.00
   0.00000004   0.00000031  -0.00000000            0.01        0.04       -0.00
   0.00000001  -0.00000000  -0.00000001            0.00       -0.00       -0.00

     kinetic stress (kbar)    145.48     -0.00     -0.12
                               -0.00    145.75      1.26
                               -0.12      1.26    152.44

     local   stress (kbar)  -1980.49     -2.10     -5.88
                               -2.10  -2100.25     49.47
                               -5.88     49.47   1417.42

     nonloc. stress (kbar)    136.30      0.00      0.01
                                0.00    136.30     -0.12
                                0.01     -0.12    135.64

     hartree stress (kbar)    940.63      0.93      2.37
                                0.93    998.60    -19.10
                                2.37    -19.10   -715.87

     exc-cor stress (kbar)     43.46      0.00      0.00
                                0.00     43.45     -0.03
                                0.00     -0.03     43.31

     corecor stress (kbar)    -90.35     -0.00     -0.00
                               -0.00    -90.35      0.02
                               -0.00      0.02    -90.26

     ewald   stress (kbar)    804.96      1.17      3.63
                                1.17    866.53    -31.50
                                3.63    -31.50   -942.69

     hubbard stress (kbar)      0.00      0.00      0.00
                                0.00      0.00      0.00
                                0.00      0.00      0.00

     DFT-D   stress (kbar)      0.02      0.00      0.00
                                0.00      0.01     -0.00
                                0.00     -0.00      0.00

     XDM     stress (kbar)      0.00      0.00      0.00
                                0.00      0.00      0.00
                                0.00      0.00      0.00

     dft-nl  stress (kbar)      0.00      0.00      0.00
                                0.00      0.00      0.00
                                0.00      0.00      0.00

     TS-vdW  stress (kbar)      0.00      0.00      0.00
                                0.00      0.00      0.00
                                0.00      0.00      0.00


                                0.00      0.00      0.00
                                0.00      0.00      0.00


                                0.00      0.00      0.00

     Energy error            =      1.9E-06 Ry
     Gradient error          =      4.8E-04 Ry/Bohr

     number of scf cycles    =  17
     number of bfgs steps    =  16

     energy             old  =    -111.1473469956 Ry
     energy             new  =    -111.1473488476 Ry

     CASE: energy            _new < energy            _old

     new trust radius        =       0.0046130237 bohr
     new conv_thr            =       0.0000000002 Ry


ATOMIC_POSITIONS (angstrom)
Si            5.0179318026        4.6135452092       20.1277393925
Cl            5.7509427390        6.4990120996       20.5038367090
Cl            3.0846725444        4.4925148056       20.8227831786
Cl            6.1784529140        3.2239778856       21.1069207198



     Writing output data file ./out/aiida.save/
     NEW-OLD atomic charge density approx. for the potential

     negative rho (up, down):  4.422E-02 0.000E+00

     total cpu time spent up to now is      222.4 secs

     Self-consistent Calculation

     iteration #  1     ecut=    60.00 Ry     beta= 0.40
     Davidson diagonalization with overlap

---- Real-time Memory Report at c_bands before calling an iterative solver
           624 MiB given to the printing process from OS
             0 MiB allocation reported by mallinfo(arena+hblkhd)
        324140 MiB available memory on the node where the printing process lives
------------------
     ethr =  1.00E-06,  avg # of iterations =  3.0

     Threshold (ethr) on eigenvalues was too large:
     Diagonalizing with lowered threshold

     Davidson diagonalization with overlap

---- Real-time Memory Report at c_bands before calling an iterative solver
           624 MiB given to the printing process from OS
             0 MiB allocation reported by mallinfo(arena+hblkhd)
        324137 MiB available memory on the node where the printing process lives
------------------
     ethr =  7.13E-09,  avg # of iterations =  6.0

     negative rho (up, down):  4.422E-02 0.000E+00

     total cpu time spent up to now is      223.5 secs

     total energy              =    -111.14735161 Ry
     estimated scf accuracy    <       0.00000051 Ry

     iteration #  2     ecut=    60.00 Ry     beta= 0.40
     Davidson diagonalization with overlap

---- Real-time Memory Report at c_bands before calling an iterative solver
           624 MiB given to the printing process from OS
             0 MiB allocation reported by mallinfo(arena+hblkhd)
        324134 MiB available memory on the node where the printing process lives
------------------
     ethr =  2.04E-09,  avg # of iterations =  1.0

     negative rho (up, down):  4.422E-02 0.000E+00

     total cpu time spent up to now is      224.2 secs

     total energy              =    -111.14735161 Ry
     estimated scf accuracy    <       0.00000012 Ry

     iteration #  3     ecut=    60.00 Ry     beta= 0.40
     Davidson diagonalization with overlap

---- Real-time Memory Report at c_bands before calling an iterative solver
           624 MiB given to the printing process from OS
             0 MiB allocation reported by mallinfo(arena+hblkhd)
        324134 MiB available memory on the node where the printing process lives
------------------
     ethr =  4.83E-10,  avg # of iterations =  1.0

     negative rho (up, down):  4.422E-02 0.000E+00

     total cpu time spent up to now is      224.8 secs

     total energy              =    -111.14735162 Ry
     estimated scf accuracy    <       0.00000001 Ry

     iteration #  4     ecut=    60.00 Ry     beta= 0.40
     Davidson diagonalization with overlap

---- Real-time Memory Report at c_bands before calling an iterative solver
           624 MiB given to the printing process from OS
             0 MiB allocation reported by mallinfo(arena+hblkhd)
        324133 MiB available memory on the node where the printing process lives
------------------
     ethr =  4.33E-11,  avg # of iterations =  2.0

     negative rho (up, down):  4.422E-02 0.000E+00

     total cpu time spent up to now is      225.5 secs

     total energy              =    -111.14735162 Ry
     estimated scf accuracy    <          8.8E-10 Ry

     iteration #  5     ecut=    60.00 Ry     beta= 0.40
     Davidson diagonalization with overlap

---- Real-time Memory Report at c_bands before calling an iterative solver
           624 MiB given to the printing process from OS
             0 MiB allocation reported by mallinfo(arena+hblkhd)
        324135 MiB available memory on the node where the printing process lives
------------------
     ethr =  3.52E-12,  avg # of iterations =  4.0

     negative rho (up, down):  4.422E-02 0.000E+00

     total cpu time spent up to now is      226.2 secs

     End of self-consistent calculation

          k = 0.0000 0.0000 0.0000 ( 95217 PWs)   bands (ev):

   -21.6089 -20.7853 -20.7838 -13.1299 -10.5069 -10.5032  -9.3643  -8.6839
    -8.6779  -8.1717  -8.1680  -7.8090  -5.1219  -1.1671  -0.5892  -0.5033
    -0.3992

     occupation numbers 
     1.0000   1.0000   1.0000   1.0000   1.0000   1.0000   1.0000   1.0000
     1.0000   1.0000   1.0000   1.0000   0.5000   0.0000   0.0000   0.0000
     0.0000

     the Fermi energy is    -5.0940 ev

!    total energy              =    -111.14735162 Ry
     estimated scf accuracy    <          1.2E-10 Ry
     smearing contrib. (-TS)   =      -0.00482420 Ry
     internal energy E=F+TS    =    -111.14252743 Ry

     The total energy is F=E-TS. E is the sum of the following terms:
     one-electron contribution =    -399.31627511 Ry
     hartree contribution      =     201.85932672 Ry
     xc contribution           =     -33.93607637 Ry
     ewald contribution        =     120.25469366 Ry
     Dispersion Correction     =      -0.00419632 Ry
     one-center paw contrib.   =       0.00000000 Ry
      -> PAW hartree energy AE =       0.00000000 Ry
      -> PAW hartree energy PS =       0.00000000 Ry
      -> PAW xc energy AE      =       0.00000000 Ry
      -> PAW xc energy PS      =       0.00000000 Ry
      -> total E_H with PAW    =     201.85932672 Ry
      -> total E_XC with PAW   =     -33.93607637 Ry

     convergence has been achieved in   5 iterations

     negative rho (up, down):  4.422E-02 0.000E+00

     Forces acting on atoms (cartesian axes, Ry/au):

     atom    1 type  3   force =    -0.00002544    0.00003978    0.00048910
     atom    2 type  4   force =    -0.00001702    0.00009392   -0.00052175
     atom    3 type  4   force =    -0.00015833   -0.00016210   -0.00014177
     atom    4 type  4   force =     0.00020079    0.00002840    0.00017442
     The non-local contrib.  to forces
     atom    1 type  3   force =    -0.00267584    0.02760279    0.15346155
     atom    2 type  4   force =    -0.07227375   -0.19162318   -0.03462868
     atom    3 type  4   force =     0.19521872    0.01216046   -0.06884669
     atom    4 type  4   force =    -0.11668327    0.14220874   -0.09675572
     The ionic contribution  to forces
     atom    1 type  3   force =     0.03581772   -0.61341149   -3.95073754
     atom    2 type  4   force =     2.63685727    5.86905113   -0.20963852
     atom    3 type  4   force =    -6.84230108   -0.59821188    1.37291691
     atom    4 type  4   force =     4.16962609   -4.65742775    2.78745915
     The local contribution  to forces
     atom    1 type  3   force =    -0.03332741    0.58756973    3.80753633
     atom    2 type  4   force =    -2.56457234   -5.67745199    0.24397836
     atom    3 type  4   force =     6.64696244    0.58593281   -1.30404954
     atom    4 type  4   force =    -4.05273769    4.51541406   -2.69032059
     The core correction contribution to forces
     atom    1 type  3   force =     0.00015407   -0.00170380   -0.00973897
     atom    2 type  4   force =    -0.00031638   -0.00058049   -0.00014848
     atom    3 type  4   force =     0.00065531    0.00006404   -0.00017774
     atom    4 type  4   force =    -0.00040837    0.00041102   -0.00030015
     The Hubbard contrib.    to forces
     atom    1 type  3   force =     0.00000000    0.00000000    0.00000000
     atom    2 type  4   force =     0.00000000    0.00000000    0.00000000
     atom    3 type  4   force =     0.00000000    0.00000000    0.00000000
     atom    4 type  4   force =     0.00000000    0.00000000    0.00000000
     The SCF correction term to forces
     atom    1 type  3   force =     0.00000137   -0.00000330    0.00000056
     atom    2 type  4   force =     0.00000910    0.00000532    0.00000309
     atom    3 type  4   force =    -0.00000340   -0.00000794   -0.00000122
     atom    4 type  4   force =    -0.00000226    0.00000184   -0.00001056

     Dispersion contribution to forces:
     atom    1 type  3   force =     0.00000472   -0.00001412   -0.00003244
     atom    2 type  4   force =     0.00027915    0.00069315   -0.00008714
     atom    3 type  4   force =    -0.00069024   -0.00009957    0.00001690
     atom    4 type  4   force =     0.00040637   -0.00057947    0.00010268

     Total force =     0.000816     Total SCF correction =     0.000018

     Total Dispersion Force =     0.001251


     Computing stress (Cartesian axis) and pressure


     negative rho (up, down):  4.422E-02 0.000E+00
          total   stress  (Ry/bohr**3)                   (kbar)     P=        0.02
   0.00000003   0.00000004   0.00000001            0.00        0.01        0.00
   0.00000004   0.00000030  -0.00000000            0.01        0.04       -0.00
   0.00000001  -0.00000000  -0.00000002            0.00       -0.00       -0.00

     kinetic stress (kbar)    145.48      0.00     -0.12
                                0.00    145.76      1.27
                               -0.12      1.27    152.43

     local   stress (kbar)  -1980.40     -2.09     -5.92
                               -2.09  -2100.04     49.81
                               -5.92     49.81   1417.12

     nonloc. stress (kbar)    136.30      0.00      0.01
                                0.00    136.30     -0.12
                                0.01     -0.12    135.64

     hartree stress (kbar)    940.59      0.93      2.38
                                0.93    998.51    -19.23
                                2.38    -19.23   -715.75

     exc-cor stress (kbar)     43.46      0.00      0.00
                                0.00     43.45     -0.03
                                0.00     -0.03     43.31

     corecor stress (kbar)    -90.35     -0.00     -0.00
                               -0.00    -90.35      0.02
                               -0.00      0.02    -90.26

     ewald   stress (kbar)    804.90      1.16      3.65
                                1.16    866.40    -31.71
                                3.65    -31.71   -942.51

     hubbard stress (kbar)      0.00      0.00      0.00
                                0.00      0.00      0.00
                                0.00      0.00      0.00

     DFT-D   stress (kbar)      0.02      0.00      0.00
                                0.00      0.01     -0.00
                                0.00     -0.00      0.00

     XDM     stress (kbar)      0.00      0.00      0.00
                                0.00      0.00      0.00
                                0.00      0.00      0.00

     dft-nl  stress (kbar)      0.00      0.00      0.00
                                0.00      0.00      0.00
                                0.00      0.00      0.00

     TS-vdW  stress (kbar)      0.00      0.00      0.00
                                0.00      0.00      0.00
                                0.00      0.00      0.00


                                0.00      0.00      0.00
                                0.00      0.00      0.00


                                0.00      0.00      0.00

     Energy error            =      2.8E-06 Ry
     Gradient error          =      5.2E-04 Ry/Bohr

     number of scf cycles    =  18
     number of bfgs steps    =  17

     energy             old  =    -111.1473488476 Ry
     energy             new  =    -111.1473516242 Ry

     CASE: energy            _new < energy            _old

     new trust radius        =       0.0069195355 bohr
     new conv_thr            =       0.0000000002 Ry


ATOMIC_POSITIONS (angstrom)
Si            5.0182639745        4.6123477834       20.1274396626
Cl            5.7493008985        6.4991964921       20.5005758319
Cl            3.0852236939        4.4919285395       20.8231383765
Cl            6.1792114331        3.2255771850       21.1101261290



     Writing output data file ./out/aiida.save/
     NEW-OLD atomic charge density approx. for the potential

     negative rho (up, down):  4.421E-02 0.000E+00

     total cpu time spent up to now is      234.0 secs

     Self-consistent Calculation

     iteration #  1     ecut=    60.00 Ry     beta= 0.40
     Davidson diagonalization with overlap

---- Real-time Memory Report at c_bands before calling an iterative solver
           626 MiB given to the printing process from OS
             0 MiB allocation reported by mallinfo(arena+hblkhd)
        324136 MiB available memory on the node where the printing process lives
------------------
     ethr =  1.00E-06,  avg # of iterations =  5.0

     Threshold (ethr) on eigenvalues was too large:
     Diagonalizing with lowered threshold

     Davidson diagonalization with overlap

---- Real-time Memory Report at c_bands before calling an iterative solver
           626 MiB given to the printing process from OS
             0 MiB allocation reported by mallinfo(arena+hblkhd)
        324130 MiB available memory on the node where the printing process lives
------------------
     ethr =  8.54E-09,  avg # of iterations =  6.0

     negative rho (up, down):  4.421E-02 0.000E+00

     total cpu time spent up to now is      235.1 secs

     total energy              =    -111.14735569 Ry
     estimated scf accuracy    <       0.00000115 Ry

     iteration #  2     ecut=    60.00 Ry     beta= 0.40
     Davidson diagonalization with overlap

---- Real-time Memory Report at c_bands before calling an iterative solver
           626 MiB given to the printing process from OS
             0 MiB allocation reported by mallinfo(arena+hblkhd)
        324131 MiB available memory on the node where the printing process lives
------------------
     ethr =  4.61E-09,  avg # of iterations =  1.0

     negative rho (up, down):  4.422E-02 0.000E+00

     total cpu time spent up to now is      235.8 secs

     total energy              =    -111.14735571 Ry
     estimated scf accuracy    <       0.00000027 Ry

     iteration #  3     ecut=    60.00 Ry     beta= 0.40
     Davidson diagonalization with overlap

---- Real-time Memory Report at c_bands before calling an iterative solver
           626 MiB given to the printing process from OS
             0 MiB allocation reported by mallinfo(arena+hblkhd)
        324133 MiB available memory on the node where the printing process lives
------------------
     ethr =  1.07E-09,  avg # of iterations =  2.0

     negative rho (up, down):  4.422E-02 0.000E+00

     total cpu time spent up to now is      236.5 secs

     total energy              =    -111.14735573 Ry
     estimated scf accuracy    <       0.00000003 Ry

     iteration #  4     ecut=    60.00 Ry     beta= 0.40
     Davidson diagonalization with overlap

---- Real-time Memory Report at c_bands before calling an iterative solver
           626 MiB given to the printing process from OS
             0 MiB allocation reported by mallinfo(arena+hblkhd)
        324132 MiB available memory on the node where the printing process lives
------------------
     ethr =  1.11E-10,  avg # of iterations =  2.0

     negative rho (up, down):  4.422E-02 0.000E+00

     total cpu time spent up to now is      237.2 secs

     total energy              =    -111.14735573 Ry
     estimated scf accuracy    <          2.1E-09 Ry

     iteration #  5     ecut=    60.00 Ry     beta= 0.40
     Davidson diagonalization with overlap

---- Real-time Memory Report at c_bands before calling an iterative solver
           626 MiB given to the printing process from OS
             0 MiB allocation reported by mallinfo(arena+hblkhd)
        324132 MiB available memory on the node where the printing process lives
------------------
     ethr =  8.60E-12,  avg # of iterations =  5.0

     negative rho (up, down):  4.422E-02 0.000E+00

     total cpu time spent up to now is      237.9 secs

     total energy              =    -111.14735573 Ry
     estimated scf accuracy    <          2.7E-10 Ry

     iteration #  6     ecut=    60.00 Ry     beta= 0.40
     Davidson diagonalization with overlap

---- Real-time Memory Report at c_bands before calling an iterative solver
           626 MiB given to the printing process from OS
             0 MiB allocation reported by mallinfo(arena+hblkhd)
        324132 MiB available memory on the node where the printing process lives
------------------
     ethr =  1.10E-12,  avg # of iterations =  4.0

     negative rho (up, down):  4.422E-02 0.000E+00

     total cpu time spent up to now is      238.5 secs

     End of self-consistent calculation

          k = 0.0000 0.0000 0.0000 ( 95217 PWs)   bands (ev):

   -21.6089 -20.7848 -20.7835 -13.1298 -10.5062 -10.5033  -9.3644  -8.6838
    -8.6777  -8.1707  -8.1676  -7.8084  -5.1238  -1.1644  -0.5906  -0.5036
    -0.3991

     occupation numbers 
     1.0000   1.0000   1.0000   1.0000   1.0000   1.0000   1.0000   1.0000
     1.0000   1.0000   1.0000   1.0000   0.5000   0.0000   0.0000   0.0000
     0.0000

     the Fermi energy is    -5.0960 ev

!    total energy              =    -111.14735573 Ry
     estimated scf accuracy    <          4.2E-11 Ry
     smearing contrib. (-TS)   =      -0.00482420 Ry
     internal energy E=F+TS    =    -111.14253154 Ry

     The total energy is F=E-TS. E is the sum of the following terms:
     one-electron contribution =    -399.31231085 Ry
     hartree contribution      =     201.85753996 Ry
     xc contribution           =     -33.93608367 Ry
     ewald contribution        =     120.25251817 Ry
     Dispersion Correction     =      -0.00419514 Ry
     one-center paw contrib.   =       0.00000000 Ry
      -> PAW hartree energy AE =       0.00000000 Ry
      -> PAW hartree energy PS =       0.00000000 Ry
      -> PAW xc energy AE      =       0.00000000 Ry
      -> PAW xc energy PS      =       0.00000000 Ry
      -> total E_H with PAW    =     201.85753996 Ry
      -> total E_XC with PAW   =     -33.93608367 Ry

     convergence has been achieved in   6 iterations

     negative rho (up, down):  4.422E-02 0.000E+00

     Forces acting on atoms (cartesian axes, Ry/au):

     atom    1 type  3   force =    -0.00005034    0.00008772    0.00063179
     atom    2 type  4   force =     0.00004067    0.00008891   -0.00057549
     atom    3 type  4   force =    -0.00021432   -0.00020647   -0.00018990
     atom    4 type  4   force =     0.00022399    0.00002983    0.00013360
     The non-local contrib.  to forces
     atom    1 type  3   force =    -0.00267532    0.02786694    0.15323601
     atom    2 type  4   force =    -0.07196599   -0.19176814   -0.03444370
     atom    3 type  4   force =     0.19512571    0.01201555   -0.06903571
     atom    4 type  4   force =    -0.11666751    0.14190961   -0.09719399
     The ionic contribution  to forces
     atom    1 type  3   force =     0.03839956   -0.62131930   -3.95293073
     atom    2 type  4   force =     2.63219735    5.87243699   -0.22564966
     atom    3 type  4   force =    -6.84328580   -0.59960619    1.37509663
     atom    4 type  4   force =     4.17268888   -4.65151150    2.80348376
     The local contribution  to forces
     atom    1 type  3   force =    -0.03592508    0.59526626    3.81006592
     atom    2 type  4   force =    -2.56015010   -5.68069484    0.25974831
     atom    3 type  4   force =     6.64798230    0.58741540   -1.30609420
     atom    4 type  4   force =    -4.05579721    4.50980012   -2.70596688
     The core correction contribution to forces
     atom    1 type  3   force =     0.00014709   -0.00171560   -0.00970754
     atom    2 type  4   force =    -0.00031895   -0.00058002   -0.00014384
     atom    3 type  4   force =     0.00065801    0.00006669   -0.00017434
     atom    4 type  4   force =    -0.00041026    0.00041050   -0.00029879
     The Hubbard contrib.    to forces
     atom    1 type  3   force =     0.00000000    0.00000000    0.00000000
     atom    2 type  4   force =     0.00000000    0.00000000    0.00000000
     atom    3 type  4   force =     0.00000000    0.00000000    0.00000000
     atom    4 type  4   force =     0.00000000    0.00000000    0.00000000
     The SCF correction term to forces
     atom    1 type  3   force =    -0.00000122    0.00000402    0.00000116
     atom    2 type  4   force =    -0.00000420   -0.00000026    0.00000258
     atom    3 type  4   force =     0.00000151    0.00000453    0.00000097
     atom    4 type  4   force =     0.00000166    0.00000054    0.00000630

     Dispersion contribution to forces:
     atom    1 type  3   force =     0.00000474   -0.00001427   -0.00003246
     atom    2 type  4   force =     0.00028267    0.00069550   -0.00008861
     atom    3 type  4   force =    -0.00069594   -0.00010212    0.00001731
     atom    4 type  4   force =     0.00040853   -0.00057911    0.00010376

     Total force =     0.000971     Total SCF correction =     0.000010

     Total Dispersion Force =     0.001257


     Computing stress (Cartesian axis) and pressure


     negative rho (up, down):  4.422E-02 0.000E+00
          total   stress  (Ry/bohr**3)                   (kbar)     P=        0.02
   0.00000004   0.00000005   0.00000001            0.01        0.01        0.00
   0.00000005   0.00000030  -0.00000001            0.01        0.04       -0.00
   0.00000001  -0.00000001  -0.00000002            0.00       -0.00       -0.00

     kinetic stress (kbar)    145.49      0.00     -0.12
                                0.00    145.76      1.28
                               -0.12      1.28    152.42

     local   stress (kbar)  -1980.26     -2.07     -5.98
                               -2.07  -2099.71     50.32
                               -5.98     50.32   1416.69

     nonloc. stress (kbar)    136.30      0.01      0.01
                                0.01    136.30     -0.12
                                0.01     -0.12    135.64

     hartree stress (kbar)    940.53      0.92      2.41
                                0.92    998.37    -19.43
                                2.41    -19.43   -715.56

     exc-cor stress (kbar)     43.46      0.00      0.00
                                0.00     43.45     -0.03
                                0.00     -0.03     43.32

     corecor stress (kbar)    -90.35     -0.00     -0.00
                               -0.00    -90.35      0.02
                               -0.00      0.02    -90.26

     ewald   stress (kbar)    804.81      1.15      3.68
                                1.15    866.21    -32.03
                                3.68    -32.03   -942.24

     hubbard stress (kbar)      0.00      0.00      0.00
                                0.00      0.00      0.00
                                0.00      0.00      0.00

     DFT-D   stress (kbar)      0.02      0.00      0.00
                                0.00      0.01     -0.00
                                0.00     -0.00      0.00

     XDM     stress (kbar)      0.00      0.00      0.00
                                0.00      0.00      0.00
                                0.00      0.00      0.00

     dft-nl  stress (kbar)      0.00      0.00      0.00
                                0.00      0.00      0.00
                                0.00      0.00      0.00

     TS-vdW  stress (kbar)      0.00      0.00      0.00
                                0.00      0.00      0.00
                                0.00      0.00      0.00


                                0.00      0.00      0.00
                                0.00      0.00      0.00


                                0.00      0.00      0.00

     Energy error            =      4.1E-06 Ry
     Gradient error          =      6.3E-04 Ry/Bohr

     number of scf cycles    =  19
     number of bfgs steps    =  18

     energy             old  =    -111.1473516242 Ry
     energy             new  =    -111.1473557340 Ry

     CASE: energy            _new < energy            _old

     new trust radius        =       0.0103793033 bohr
     new conv_thr            =       0.0000000002 Ry


ATOMIC_POSITIONS (angstrom)
Si            5.0187493429        4.6105885403       20.1271249107
Cl            5.7468923482        6.4995073442       20.4956494020
Cl            3.0859771981        4.4910222608       20.8236253415
Cl            6.1803811109        3.2279318547       21.1148803458



     Writing output data file ./out/aiida.save/
     NEW-OLD atomic charge density approx. for the potential

     negative rho (up, down):  4.423E-02 0.000E+00

     total cpu time spent up to now is      246.3 secs

     Self-consistent Calculation

     iteration #  1     ecut=    60.00 Ry     beta= 0.40
     Davidson diagonalization with overlap

---- Real-time Memory Report at c_bands before calling an iterative solver
           627 MiB given to the printing process from OS
             0 MiB allocation reported by mallinfo(arena+hblkhd)
        324141 MiB available memory on the node where the printing process lives
------------------
     ethr =  1.00E-06,  avg # of iterations =  6.0

     Threshold (ethr) on eigenvalues was too large:
     Diagonalizing with lowered threshold

     Davidson diagonalization with overlap

---- Real-time Memory Report at c_bands before calling an iterative solver
           627 MiB given to the printing process from OS
             0 MiB allocation reported by mallinfo(arena+hblkhd)
        324132 MiB available memory on the node where the printing process lives
------------------
     ethr =  1.15E-08,  avg # of iterations =  5.0

     negative rho (up, down):  4.423E-02 0.000E+00

     total cpu time spent up to now is      247.5 secs

     total energy              =    -111.14736163 Ry
     estimated scf accuracy    <       0.00000249 Ry

     iteration #  2     ecut=    60.00 Ry     beta= 0.40
     Davidson diagonalization with overlap

---- Real-time Memory Report at c_bands before calling an iterative solver
           627 MiB given to the printing process from OS
             0 MiB allocation reported by mallinfo(arena+hblkhd)
        324130 MiB available memory on the node where the printing process lives
------------------
     ethr =  9.97E-09,  avg # of iterations =  1.0

     negative rho (up, down):  4.424E-02 0.000E+00

     total cpu time spent up to now is      248.1 secs

     total energy              =    -111.14736165 Ry
     estimated scf accuracy    <       0.00000059 Ry

     iteration #  3     ecut=    60.00 Ry     beta= 0.40
     Davidson diagonalization with overlap

---- Real-time Memory Report at c_bands before calling an iterative solver
           627 MiB given to the printing process from OS
             0 MiB allocation reported by mallinfo(arena+hblkhd)
        324130 MiB available memory on the node where the printing process lives
------------------
     ethr =  2.36E-09,  avg # of iterations =  1.0

     negative rho (up, down):  4.424E-02 0.000E+00

     total cpu time spent up to now is      248.8 secs

     total energy              =    -111.14736169 Ry
     estimated scf accuracy    <       0.00000006 Ry

     iteration #  4     ecut=    60.00 Ry     beta= 0.40
     Davidson diagonalization with overlap

---- Real-time Memory Report at c_bands before calling an iterative solver
           627 MiB given to the printing process from OS
             0 MiB allocation reported by mallinfo(arena+hblkhd)
        324132 MiB available memory on the node where the printing process lives
------------------
     ethr =  2.26E-10,  avg # of iterations =  4.0

     negative rho (up, down):  4.423E-02 0.000E+00

     total cpu time spent up to now is      249.5 secs

     total energy              =    -111.14736169 Ry
     estimated scf accuracy    <          4.4E-09 Ry

     iteration #  5     ecut=    60.00 Ry     beta= 0.40
     Davidson diagonalization with overlap

---- Real-time Memory Report at c_bands before calling an iterative solver
           627 MiB given to the printing process from OS
             0 MiB allocation reported by mallinfo(arena+hblkhd)
        324129 MiB available memory on the node where the printing process lives
------------------
     ethr =  1.76E-11,  avg # of iterations =  2.0

     negative rho (up, down):  4.423E-02 0.000E+00

     total cpu time spent up to now is      250.2 secs

     total energy              =    -111.14736169 Ry
     estimated scf accuracy    <          4.7E-10 Ry

     iteration #  6     ecut=    60.00 Ry     beta= 0.40
     Davidson diagonalization with overlap

---- Real-time Memory Report at c_bands before calling an iterative solver
           627 MiB given to the printing process from OS
             0 MiB allocation reported by mallinfo(arena+hblkhd)
        324129 MiB available memory on the node where the printing process lives
------------------
     ethr =  1.89E-12,  avg # of iterations =  4.0

     negative rho (up, down):  4.423E-02 0.000E+00

     total cpu time spent up to now is      250.9 secs

     End of self-consistent calculation

          k = 0.0000 0.0000 0.0000 ( 95217 PWs)   bands (ev):

   -21.6089 -20.7844 -20.7829 -13.1297 -10.5053 -10.5034  -9.3646  -8.6839
    -8.6774  -8.1695  -8.1670  -7.8077  -5.1263  -1.1611  -0.5923  -0.5039
    -0.3991

     occupation numbers 
     1.0000   1.0000   1.0000   1.0000   1.0000   1.0000   1.0000   1.0000
     1.0000   1.0000   1.0000   1.0000   0.5000   0.0000   0.0000   0.0000
     0.0000

     the Fermi energy is    -5.0984 ev

!    total energy              =    -111.14736169 Ry
     estimated scf accuracy    <          5.9E-11 Ry
     smearing contrib. (-TS)   =      -0.00482420 Ry
     internal energy E=F+TS    =    -111.14253749 Ry

     The total energy is F=E-TS. E is the sum of the following terms:
     one-electron contribution =    -399.30366863 Ry
     hartree contribution      =     201.85345445 Ry
     xc contribution           =     -33.93608041 Ry
     ewald contribution        =     120.24795074 Ry
     Dispersion Correction     =      -0.00419363 Ry
     one-center paw contrib.   =       0.00000000 Ry
      -> PAW hartree energy AE =       0.00000000 Ry
      -> PAW hartree energy PS =       0.00000000 Ry
      -> PAW xc energy AE      =       0.00000000 Ry
      -> PAW xc energy PS      =       0.00000000 Ry
      -> total E_H with PAW    =     201.85345445 Ry
      -> total E_XC with PAW   =     -33.93608041 Ry

     convergence has been achieved in   6 iterations

     negative rho (up, down):  4.423E-02 0.000E+00

     Forces acting on atoms (cartesian axes, Ry/au):

     atom    1 type  3   force =    -0.00008207    0.00015184    0.00081109
     atom    2 type  4   force =     0.00011899    0.00007390   -0.00064185
     atom    3 type  4   force =    -0.00028847   -0.00026613   -0.00024906
     atom    4 type  4   force =     0.00025155    0.00004039    0.00007982
     The non-local contrib.  to forces
     atom    1 type  3   force =    -0.00267274    0.02826674    0.15294604
     atom    2 type  4   force =    -0.07151354   -0.19198547   -0.03411647
     atom    3 type  4   force =     0.19500290    0.01180886   -0.06927362
     atom    4 type  4   force =    -0.11666658    0.14149270   -0.09782749
     The ionic contribution  to forces
     atom    1 type  3   force =     0.04221014   -0.63293944   -3.95515839
     atom    2 type  4   force =     2.62518007    5.87716796   -0.24990472
     atom    3 type  4   force =    -6.84452214   -0.60173828    1.37801200
     atom    4 type  4   force =     4.17713194   -4.64249024    2.82705111
     The local contribution  to forces
     atom    1 type  3   force =    -0.03976011    0.60657152    3.81272434
     atom    2 type  4   force =    -2.55351146   -5.68522779    0.28360580
     atom    3 type  4   force =     6.64927246    0.58969591   -1.30883382
     atom    4 type  4   force =    -4.06021337    4.50120660   -2.72895079
     The core correction contribution to forces
     atom    1 type  3   force =     0.00013635   -0.00173418   -0.00966853
     atom    2 type  4   force =    -0.00032309   -0.00057937   -0.00013785
     atom    3 type  4   force =     0.00066192    0.00007076   -0.00016993
     atom    4 type  4   force =    -0.00041223    0.00040881   -0.00029604
     The Hubbard contrib.    to forces
     atom    1 type  3   force =     0.00000000    0.00000000    0.00000000
     atom    2 type  4   force =     0.00000000    0.00000000    0.00000000
     atom    3 type  4   force =     0.00000000    0.00000000    0.00000000
     atom    4 type  4   force =     0.00000000    0.00000000    0.00000000
     The SCF correction term to forces
     atom    1 type  3   force =    -0.00000044    0.00000186    0.00000060
     atom    2 type  4   force =    -0.00000036    0.00000068    0.00000253
     atom    3 type  4   force =    -0.00000024    0.00000252   -0.00000115
     atom    4 type  4   force =     0.00000064    0.00000055   -0.00000174

     Dispersion contribution to forces:
     atom    1 type  3   force =     0.00000476   -0.00001449   -0.00003249
     atom    2 type  4   force =     0.00028740    0.00069806   -0.00009067
     atom    3 type  4   force =    -0.00070335   -0.00010572    0.00001792
     atom    4 type  4   force =     0.00041119   -0.00057785    0.00010524

     Total force =     0.001186     Total SCF correction =     0.000005

     Total Dispersion Force =     0.001265


     Computing stress (Cartesian axis) and pressure


     negative rho (up, down):  4.423E-02 0.000E+00
          total   stress  (Ry/bohr**3)                   (kbar)     P=        0.02
   0.00000006   0.00000006   0.00000001            0.01        0.01        0.00
   0.00000006   0.00000029  -0.00000001            0.01        0.04       -0.00
   0.00000001  -0.00000001  -0.00000003            0.00       -0.00       -0.00

     kinetic stress (kbar)    145.50      0.01     -0.12
                                0.01    145.77      1.29
                               -0.12      1.29    152.40

     local   stress (kbar)  -1980.07     -2.05     -6.06
                               -2.05  -2099.21     51.08
                               -6.06     51.08   1416.05

     nonloc. stress (kbar)    136.31      0.01      0.01
                                0.01    136.30     -0.12
                                0.01     -0.12    135.64

     hartree stress (kbar)    940.45      0.92      2.44
                                0.92    998.16    -19.73
                                2.44    -19.73   -715.30

     exc-cor stress (kbar)     43.46      0.00      0.00
                                0.00     43.45     -0.03
                                0.00     -0.03     43.32

     corecor stress (kbar)    -90.35     -0.00     -0.00
                               -0.00    -90.35      0.02
                               -0.00      0.02    -90.26

     ewald   stress (kbar)    804.69      1.12      3.74
                                1.12    865.91    -32.51
                                3.74    -32.51   -941.85

     hubbard stress (kbar)      0.00      0.00      0.00
                                0.00      0.00      0.00
                                0.00      0.00      0.00

     DFT-D   stress (kbar)      0.02      0.00      0.00
                                0.00      0.01     -0.00
                                0.00     -0.00      0.00

     XDM     stress (kbar)      0.00      0.00      0.00
                                0.00      0.00      0.00
                                0.00      0.00      0.00

     dft-nl  stress (kbar)      0.00      0.00      0.00
                                0.00      0.00      0.00
                                0.00      0.00      0.00

     TS-vdW  stress (kbar)      0.00      0.00      0.00
                                0.00      0.00      0.00
                                0.00      0.00      0.00


                                0.00      0.00      0.00
                                0.00      0.00      0.00


                                0.00      0.00      0.00

     Energy error            =      6.0E-06 Ry
     Gradient error          =      8.1E-04 Ry/Bohr

     number of scf cycles    =  20
     number of bfgs steps    =  19

     energy             old  =    -111.1473557340 Ry
     energy             new  =    -111.1473616924 Ry

     CASE: energy            _new < energy            _old

     new trust radius        =       0.0155689550 bohr
     new conv_thr            =       0.0000000002 Ry


ATOMIC_POSITIONS (angstrom)
Si            5.0194607372        4.6079999889       20.1268157225
Cl            5.7433518177        6.5000050466       20.4882268883
Cl            3.0870183194        4.4896294941       20.8243007374
Cl            6.1821691257        3.2314154704       21.1219366517



     Writing output data file ./out/aiida.save/
     NEW-OLD atomic charge density approx. for the potential

     negative rho (up, down):  4.423E-02 0.000E+00

     total cpu time spent up to now is      258.6 secs

     Self-consistent Calculation

     iteration #  1     ecut=    60.00 Ry     beta= 0.40
     Davidson diagonalization with overlap

---- Real-time Memory Report at c_bands before calling an iterative solver
           629 MiB given to the printing process from OS
             0 MiB allocation reported by mallinfo(arena+hblkhd)
        324138 MiB available memory on the node where the printing process lives
------------------
     ethr =  1.00E-06,  avg # of iterations =  6.0

     Threshold (ethr) on eigenvalues was too large:
     Diagonalizing with lowered threshold

     Davidson diagonalization with overlap

---- Real-time Memory Report at c_bands before calling an iterative solver
           629 MiB given to the printing process from OS
             0 MiB allocation reported by mallinfo(arena+hblkhd)
        324129 MiB available memory on the node where the printing process lives
------------------
     ethr =  2.14E-08,  avg # of iterations =  4.0

     negative rho (up, down):  4.423E-02 0.000E+00

     total cpu time spent up to now is      262.7 secs

     total energy              =    -111.14737011 Ry
     estimated scf accuracy    <       0.00000544 Ry

     iteration #  2     ecut=    60.00 Ry     beta= 0.40
     Davidson diagonalization with overlap

---- Real-time Memory Report at c_bands before calling an iterative solver
           629 MiB given to the printing process from OS
             0 MiB allocation reported by mallinfo(arena+hblkhd)
        324129 MiB available memory on the node where the printing process lives
------------------
     ethr =  2.18E-08,  avg # of iterations =  1.0

     negative rho (up, down):  4.425E-02 0.000E+00

     total cpu time spent up to now is      263.4 secs

     total energy              =    -111.14737012 Ry
     estimated scf accuracy    <       0.00000131 Ry

     iteration #  3     ecut=    60.00 Ry     beta= 0.40
     Davidson diagonalization with overlap

---- Real-time Memory Report at c_bands before calling an iterative solver
           629 MiB given to the printing process from OS
             0 MiB allocation reported by mallinfo(arena+hblkhd)
        324128 MiB available memory on the node where the printing process lives
------------------
     ethr =  5.22E-09,  avg # of iterations =  1.0

     negative rho (up, down):  4.425E-02 0.000E+00

     total cpu time spent up to now is      264.0 secs

     total energy              =    -111.14737020 Ry
     estimated scf accuracy    <       0.00000011 Ry

     iteration #  4     ecut=    60.00 Ry     beta= 0.40
     Davidson diagonalization with overlap

---- Real-time Memory Report at c_bands before calling an iterative solver
           629 MiB given to the printing process from OS
             0 MiB allocation reported by mallinfo(arena+hblkhd)
        324128 MiB available memory on the node where the printing process lives
------------------
     ethr =  4.56E-10,  avg # of iterations =  2.0

     negative rho (up, down):  4.424E-02 0.000E+00

     total cpu time spent up to now is      264.7 secs

     total energy              =    -111.14737021 Ry
     estimated scf accuracy    <       0.00000001 Ry

     iteration #  5     ecut=    60.00 Ry     beta= 0.40
     Davidson diagonalization with overlap

---- Real-time Memory Report at c_bands before calling an iterative solver
           629 MiB given to the printing process from OS
             0 MiB allocation reported by mallinfo(arena+hblkhd)
        324128 MiB available memory on the node where the printing process lives
------------------
     ethr =  4.30E-11,  avg # of iterations =  4.0

     negative rho (up, down):  4.423E-02 0.000E+00

     total cpu time spent up to now is      265.4 secs

     total energy              =    -111.14737021 Ry
     estimated scf accuracy    <          1.1E-09 Ry

     iteration #  6     ecut=    60.00 Ry     beta= 0.40
     Davidson diagonalization with overlap

---- Real-time Memory Report at c_bands before calling an iterative solver
           629 MiB given to the printing process from OS
             0 MiB allocation reported by mallinfo(arena+hblkhd)
        324129 MiB available memory on the node where the printing process lives
------------------
     ethr =  4.56E-12,  avg # of iterations =  2.0

     negative rho (up, down):  4.423E-02 0.000E+00

     total cpu time spent up to now is      266.0 secs

     total energy              =    -111.14737021 Ry
     estimated scf accuracy    <          1.9E-10 Ry

     iteration #  7     ecut=    60.00 Ry     beta= 0.40
     Davidson diagonalization with overlap

---- Real-time Memory Report at c_bands before calling an iterative solver
           629 MiB given to the printing process from OS
             0 MiB allocation reported by mallinfo(arena+hblkhd)
        324129 MiB available memory on the node where the printing process lives
------------------
     ethr =  7.45E-13,  avg # of iterations =  4.0

     negative rho (up, down):  4.423E-02 0.000E+00

     total cpu time spent up to now is      266.7 secs

     End of self-consistent calculation

          k = 0.0000 0.0000 0.0000 ( 95217 PWs)   bands (ev):

   -21.6088 -20.7842 -20.7818 -13.1295 -10.5042 -10.5035  -9.3648  -8.6840
    -8.6770  -8.1682  -8.1661  -7.8069  -5.1294  -1.1569  -0.5946  -0.5042
    -0.3990

     occupation numbers 
     1.0000   1.0000   1.0000   1.0000   1.0000   1.0000   1.0000   1.0000
     1.0000   1.0000   1.0000   1.0000   0.5000   0.0000   0.0000   0.0000
     0.0000

     the Fermi energy is    -5.1016 ev

!    total energy              =    -111.14737022 Ry
     estimated scf accuracy    <          2.5E-11 Ry
     smearing contrib. (-TS)   =      -0.00482420 Ry
     internal energy E=F+TS    =    -111.14254602 Ry

     The total energy is F=E-TS. E is the sum of the following terms:
     one-electron contribution =    -399.28691786 Ry
     hartree contribution      =     201.84534955 Ry
     xc contribution           =     -33.93604426 Ry
     ewald contribution        =     120.23925821 Ry
     Dispersion Correction     =      -0.00419167 Ry
     one-center paw contrib.   =       0.00000000 Ry
      -> PAW hartree energy AE =       0.00000000 Ry
      -> PAW hartree energy PS =       0.00000000 Ry
      -> PAW xc energy AE      =       0.00000000 Ry
      -> PAW xc energy PS      =       0.00000000 Ry
      -> total E_H with PAW    =     201.84534955 Ry
      -> total E_XC with PAW   =     -33.93604426 Ry

     convergence has been achieved in   7 iterations

     negative rho (up, down):  4.423E-02 0.000E+00

     Forces acting on atoms (cartesian axes, Ry/au):

     atom    1 type  3   force =    -0.00011886    0.00023590    0.00104145
     atom    2 type  4   force =     0.00022761    0.00003991   -0.00072672
     atom    3 type  4   force =    -0.00038621   -0.00035310   -0.00032226
     atom    4 type  4   force =     0.00027745    0.00007728    0.00000753
     The non-local contrib.  to forces
     atom    1 type  3   force =    -0.00266612    0.02887194    0.15257071
     atom    2 type  4   force =    -0.07086770   -0.19232866   -0.03356854
     atom    3 type  4   force =     0.19484621    0.01152549   -0.06956656
     atom    4 type  4   force =    -0.11668433    0.14089914   -0.09871158
     The ionic contribution  to forces
     atom    1 type  3   force =     0.04787980   -0.65004536   -3.95718590
     atom    2 type  4   force =     2.61462480    5.88375983   -0.28652113
     atom    3 type  4   force =    -6.84606645   -0.60498788    1.38196075
     atom    4 type  4   force =     4.18356185   -4.62872658    2.86174628
     The local contribution  to forces
     atom    1 type  3   force =    -0.04545617    0.62318476    3.81531004
     atom    2 type  4   force =    -2.54348854   -5.69150969    0.31958854
     atom    3 type  4   force =     6.65088120    0.59313641   -1.31256994
     atom    4 type  4   force =    -4.06660174    4.48807398   -2.76284614
     The core correction contribution to forces
     atom    1 type  3   force =     0.00011977   -0.00176361   -0.00962014
     atom    2 type  4   force =    -0.00032818   -0.00057726   -0.00012986
     atom    3 type  4   force =     0.00066698    0.00007620   -0.00016472
     atom    4 type  4   force =    -0.00041456    0.00040522   -0.00029350
     The Hubbard contrib.    to forces
     atom    1 type  3   force =     0.00000000    0.00000000    0.00000000
     atom    2 type  4   force =     0.00000000    0.00000000    0.00000000
     atom    3 type  4   force =     0.00000000    0.00000000    0.00000000
     atom    4 type  4   force =     0.00000000    0.00000000    0.00000000
     The SCF correction term to forces
     atom    1 type  3   force =    -0.00000047    0.00000323   -0.00000043
     atom    2 type  4   force =    -0.00000612   -0.00000476   -0.00000188
     atom    3 type  4   force =    -0.00000068    0.00000774   -0.00000033
     atom    4 type  4   force =     0.00000225    0.00000079    0.00000551

     Dispersion contribution to forces:
     atom    1 type  3   force =     0.00000479   -0.00001482   -0.00003253
     atom    2 type  4   force =     0.00029381    0.00070067   -0.00009355
     atom    3 type  4   force =    -0.00071302   -0.00011082    0.00001883
     atom    4 type  4   force =     0.00041442   -0.00057504    0.00010725

     Total force =     0.001482     Total SCF correction =     0.000013

     Total Dispersion Force =     0.001274


     Computing stress (Cartesian axis) and pressure


     negative rho (up, down):  4.423E-02 0.000E+00
          total   stress  (Ry/bohr**3)                   (kbar)     P=        0.02
   0.00000008   0.00000007   0.00000001            0.01        0.01        0.00
   0.00000007   0.00000028  -0.00000001            0.01        0.04       -0.00
   0.00000001  -0.00000001  -0.00000005            0.00       -0.00       -0.01

     kinetic stress (kbar)    145.52      0.02     -0.13
                                0.02    145.78      1.32
                               -0.13      1.32    152.37

     local   stress (kbar)  -1979.79     -2.03     -6.20
                               -2.03  -2098.46     52.23
                               -6.20     52.23   1415.11

     nonloc. stress (kbar)    136.31      0.01      0.01
                                0.01    136.30     -0.13
                                0.01     -0.13    135.64

     hartree stress (kbar)    940.33      0.92      2.50
                                0.92    997.84    -20.18
                                2.50    -20.18   -714.90

     exc-cor stress (kbar)     43.46      0.00      0.00
                                0.00     43.45     -0.03
                                0.00     -0.03     43.32

     corecor stress (kbar)    -90.35     -0.00     -0.00
                               -0.00    -90.35      0.02
                               -0.00      0.02    -90.26

     ewald   stress (kbar)    804.52      1.09      3.81
                                1.09    865.47    -33.23
                                3.81    -33.23   -941.28

     hubbard stress (kbar)      0.00      0.00      0.00
                                0.00      0.00      0.00
                                0.00      0.00      0.00

     DFT-D   stress (kbar)      0.02      0.00      0.00
                                0.00      0.01     -0.00
                                0.00     -0.00      0.00

     XDM     stress (kbar)      0.00      0.00      0.00
                                0.00      0.00      0.00
                                0.00      0.00      0.00

     dft-nl  stress (kbar)      0.00      0.00      0.00
                                0.00      0.00      0.00
                                0.00      0.00      0.00

     TS-vdW  stress (kbar)      0.00      0.00      0.00
                                0.00      0.00      0.00
                                0.00      0.00      0.00


                                0.00      0.00      0.00
                                0.00      0.00      0.00


                                0.00      0.00      0.00

     Energy error            =      8.5E-06 Ry
     Gradient error          =      1.0E-03 Ry/Bohr

     number of scf cycles    =  21
     number of bfgs steps    =  20

     energy             old  =    -111.1473616924 Ry
     energy             new  =    -111.1473702186 Ry

     CASE: energy            _new < energy            _old

     new trust radius        =       0.0233534325 bohr
     new conv_thr            =       0.0000000002 Ry


ATOMIC_POSITIONS (angstrom)
Si            5.0205103519        4.6041793978       20.1265505615
Cl            5.7381302420        6.5007678060       20.4770520914
Cl            3.0884808235        4.4874920782       20.8252490075
Cl            6.1848785827        3.2366107180       21.1324283396



     Writing output data file ./out/aiida.save/
     NEW-OLD atomic charge density approx. for the potential

     negative rho (up, down):  4.428E-02 0.000E+00

     total cpu time spent up to now is      274.5 secs

     Self-consistent Calculation

     iteration #  1     ecut=    60.00 Ry     beta= 0.40
     Davidson diagonalization with overlap

---- Real-time Memory Report at c_bands before calling an iterative solver
           631 MiB given to the printing process from OS
             0 MiB allocation reported by mallinfo(arena+hblkhd)
        324135 MiB available memory on the node where the printing process lives
------------------
     ethr =  1.00E-06,  avg # of iterations =  7.0

     Threshold (ethr) on eigenvalues was too large:
     Diagonalizing with lowered threshold

     Davidson diagonalization with overlap

---- Real-time Memory Report at c_bands before calling an iterative solver
           631 MiB given to the printing process from OS
             0 MiB allocation reported by mallinfo(arena+hblkhd)
        324126 MiB available memory on the node where the printing process lives
------------------
     ethr =  4.88E-08,  avg # of iterations =  2.0

     negative rho (up, down):  4.428E-02 0.000E+00

     total cpu time spent up to now is      275.6 secs

     total energy              =    -111.14738147 Ry
     estimated scf accuracy    <       0.00001212 Ry

     iteration #  2     ecut=    60.00 Ry     beta= 0.40
     Davidson diagonalization with overlap

---- Real-time Memory Report at c_bands before calling an iterative solver
           631 MiB given to the printing process from OS
             0 MiB allocation reported by mallinfo(arena+hblkhd)
        324127 MiB available memory on the node where the printing process lives
------------------
     ethr =  4.85E-08,  avg # of iterations =  1.0

     negative rho (up, down):  4.432E-02 0.000E+00

     total cpu time spent up to now is      276.3 secs

     total energy              =    -111.14738172 Ry
     estimated scf accuracy    <       0.00000287 Ry

     iteration #  3     ecut=    60.00 Ry     beta= 0.40
     Davidson diagonalization with overlap

---- Real-time Memory Report at c_bands before calling an iterative solver
           631 MiB given to the printing process from OS
             0 MiB allocation reported by mallinfo(arena+hblkhd)
        324127 MiB available memory on the node where the printing process lives
------------------
     ethr =  1.15E-08,  avg # of iterations =  2.0

     negative rho (up, down):  4.432E-02 0.000E+00

     total cpu time spent up to now is      276.9 secs

     total energy              =    -111.14738203 Ry
     estimated scf accuracy    <       0.00000027 Ry

     iteration #  4     ecut=    60.00 Ry     beta= 0.40
     Davidson diagonalization with overlap

---- Real-time Memory Report at c_bands before calling an iterative solver
           631 MiB given to the printing process from OS
             0 MiB allocation reported by mallinfo(arena+hblkhd)
        324126 MiB available memory on the node where the printing process lives
------------------
     ethr =  1.09E-09,  avg # of iterations =  5.0

     negative rho (up, down):  4.430E-02 0.000E+00

     total cpu time spent up to now is      277.7 secs

     total energy              =    -111.14738217 Ry
     estimated scf accuracy    <       0.00000002 Ry

     iteration #  5     ecut=    60.00 Ry     beta= 0.40
     Davidson diagonalization with overlap

---- Real-time Memory Report at c_bands before calling an iterative solver
           631 MiB given to the printing process from OS
             0 MiB allocation reported by mallinfo(arena+hblkhd)
        324126 MiB available memory on the node where the printing process lives
------------------
     ethr =  8.54E-11,  avg # of iterations =  2.0

     negative rho (up, down):  4.429E-02 0.000E+00

     total cpu time spent up to now is      278.3 secs

     total energy              =    -111.14738218 Ry
     estimated scf accuracy    <          2.3E-09 Ry

     iteration #  6     ecut=    60.00 Ry     beta= 0.40
     Davidson diagonalization with overlap

---- Real-time Memory Report at c_bands before calling an iterative solver
           631 MiB given to the printing process from OS
             0 MiB allocation reported by mallinfo(arena+hblkhd)
        324126 MiB available memory on the node where the printing process lives
------------------
     ethr =  9.40E-12,  avg # of iterations =  5.0

     negative rho (up, down):  4.428E-02 0.000E+00

     total cpu time spent up to now is      279.1 secs

     total energy              =    -111.14738218 Ry
     estimated scf accuracy    <          2.9E-10 Ry

     iteration #  7     ecut=    60.00 Ry     beta= 0.40
     Davidson diagonalization with overlap

---- Real-time Memory Report at c_bands before calling an iterative solver
           631 MiB given to the printing process from OS
             0 MiB allocation reported by mallinfo(arena+hblkhd)
        324127 MiB available memory on the node where the printing process lives
------------------
     ethr =  1.17E-12,  avg # of iterations =  2.0

     negative rho (up, down):  4.427E-02 0.000E+00

     total cpu time spent up to now is      279.7 secs

     End of self-consistent calculation

          k = 0.0000 0.0000 0.0000 ( 95217 PWs)   bands (ev):

   -21.6087 -20.7842 -20.7802 -13.1294 -10.5042 -10.5023  -9.3649  -8.6843
    -8.6762  -8.1674  -8.1643  -7.8060  -5.1335  -1.1518  -0.5978  -0.5045
    -0.3990

     occupation numbers 
     1.0000   1.0000   1.0000   1.0000   1.0000   1.0000   1.0000   1.0000
     1.0000   1.0000   1.0000   1.0000   0.5000   0.0000   0.0000   0.0000
     0.0000

     the Fermi energy is    -5.1057 ev

!    total energy              =    -111.14738217 Ry
     estimated scf accuracy    <          1.5E-11 Ry
     smearing contrib. (-TS)   =      -0.00482420 Ry
     internal energy E=F+TS    =    -111.14255798 Ry

     The total energy is F=E-TS. E is the sum of the following terms:
     one-electron contribution =    -399.25651426 Ry
     hartree contribution      =     201.83046711 Ry
     xc contribution           =     -33.93594734 Ry
     ewald contribution        =     120.22362558 Ry
     Dispersion Correction     =      -0.00418906 Ry
     one-center paw contrib.   =       0.00000000 Ry
      -> PAW hartree energy AE =       0.00000000 Ry
      -> PAW hartree energy PS =       0.00000000 Ry
      -> PAW xc energy AE      =       0.00000000 Ry
      -> PAW xc energy PS      =       0.00000000 Ry
      -> total E_H with PAW    =     201.83046711 Ry
      -> total E_XC with PAW   =     -33.93594734 Ry

     convergence has been achieved in   7 iterations

     negative rho (up, down):  4.427E-02 0.000E+00

     Forces acting on atoms (cartesian axes, Ry/au):

     atom    1 type  3   force =    -0.00015419    0.00035574    0.00134366
     atom    2 type  4   force =     0.00037670   -0.00003602   -0.00083230
     atom    3 type  4   force =    -0.00052200   -0.00047278   -0.00041298
     atom    4 type  4   force =     0.00029948    0.00015306   -0.00009838
     The non-local contrib.  to forces
     atom    1 type  3   force =    -0.00264896    0.02978563    0.15207837
     atom    2 type  4   force =    -0.06992237   -0.19285155   -0.03266954
     atom    3 type  4   force =     0.19463681    0.01112161   -0.06993849
     atom    4 type  4   force =    -0.11674006    0.14005246   -0.09999443
     The ionic contribution  to forces
     atom    1 type  3   force =     0.05641171   -0.67525779   -3.95860418
     atom    2 type  4   force =     2.59873241    5.89289501   -0.34172250
     atom    3 type  4   force =    -6.84802012   -0.60993912    1.38739081
     atom    4 type  4   force =     4.19287600   -4.60769810    2.91293588
     The local contribution  to forces
     atom    1 type  3   force =    -0.05401446    0.64765318    3.81746242
     atom    2 type  4   force =    -2.52840023   -5.70021166    0.37377519
     atom    3 type  4   force =     6.65291558    0.59837648   -1.31772672
     atom    4 type  4   force =    -4.07583526    4.46796797   -2.81285719
     The core correction contribution to forces
     atom    1 type  3   force =     0.00009342   -0.00180970   -0.00955989
     atom    2 type  4   force =    -0.00033561   -0.00057332   -0.00011981
     atom    3 type  4   force =     0.00067421    0.00008424   -0.00015803
     atom    4 type  4   force =    -0.00041674    0.00039828   -0.00028913
     The Hubbard contrib.    to forces
     atom    1 type  3   force =     0.00000000    0.00000000    0.00000000
     atom    2 type  4   force =     0.00000000    0.00000000    0.00000000
     atom    3 type  4   force =     0.00000000    0.00000000    0.00000000
     atom    4 type  4   force =     0.00000000    0.00000000    0.00000000
     The SCF correction term to forces
     atom    1 type  3   force =     0.00000016   -0.00000089   -0.00000018
     atom    2 type  4   force =     0.00000086    0.00000187    0.00000227
     atom    3 type  4   force =    -0.00000176    0.00000144   -0.00000043
     atom    4 type  4   force =    -0.00000201    0.00000153   -0.00000320

     Dispersion contribution to forces:
     atom    1 type  3   force =     0.00000483   -0.00001530   -0.00003258
     atom    2 type  4   force =     0.00030253    0.00070302   -0.00009761
     atom    3 type  4   force =    -0.00072581   -0.00011804    0.00002018
     atom    4 type  4   force =     0.00041845   -0.00056969    0.00011001

     Total force =     0.001892     Total SCF correction =     0.000006

     Total Dispersion Force =     0.001284


     Computing stress (Cartesian axis) and pressure


     negative rho (up, down):  4.427E-02 0.000E+00
          total   stress  (Ry/bohr**3)                   (kbar)     P=        0.01
   0.00000011   0.00000009   0.00000001            0.02        0.01        0.00
   0.00000009   0.00000025  -0.00000001            0.01        0.04       -0.00
   0.00000001  -0.00000001  -0.00000006            0.00       -0.00       -0.01

     kinetic stress (kbar)    145.54      0.03     -0.13
                                0.03    145.79      1.36
                               -0.13      1.36    152.34

     local   stress (kbar)  -1979.36     -1.99     -6.41
                               -1.99  -2097.29     53.93
                               -6.41     53.93   1413.70

     nonloc. stress (kbar)    136.31      0.01      0.01
                                0.01    136.29     -0.13
                                0.01     -0.13    135.64

     hartree stress (kbar)    940.15      0.91      2.59
                                0.91    997.34    -20.84
                                2.59    -20.84   -714.31

     exc-cor stress (kbar)     43.46      0.00      0.00
                                0.00     43.45     -0.03
                                0.00     -0.03     43.32

     corecor stress (kbar)    -90.35     -0.00     -0.00
                               -0.00    -90.35      0.02
                               -0.00      0.02    -90.26

     ewald   stress (kbar)    804.26      1.06      3.94
                                1.06    864.79    -34.31
                                3.94    -34.31   -940.44

     hubbard stress (kbar)      0.00      0.00      0.00
                                0.00      0.00      0.00
                                0.00      0.00      0.00

     DFT-D   stress (kbar)      0.02      0.00      0.00
                                0.00      0.01     -0.00
                                0.00     -0.00      0.00

     XDM     stress (kbar)      0.00      0.00      0.00
                                0.00      0.00      0.00
                                0.00      0.00      0.00

     dft-nl  stress (kbar)      0.00      0.00      0.00
                                0.00      0.00      0.00
                                0.00      0.00      0.00

     TS-vdW  stress (kbar)      0.00      0.00      0.00
                                0.00      0.00      0.00
                                0.00      0.00      0.00


                                0.00      0.00      0.00
                                0.00      0.00      0.00


                                0.00      0.00      0.00

     Energy error            =      1.2E-05 Ry
     Gradient error          =      1.3E-03 Ry/Bohr

     number of scf cycles    =  22
     number of bfgs steps    =  21

     energy             old  =    -111.1473702186 Ry
     energy             new  =    -111.1473821734 Ry

     CASE: energy            _new < energy            _old

     new trust radius        =       0.0350301487 bohr
     new conv_thr            =       0.0000000002 Ry


ATOMIC_POSITIONS (angstrom)
Si            5.0220708844        4.5985417344       20.1264313512
Cl            5.7304181695        6.5018957638       20.4602331195
Cl            3.0905469683        4.4842153963       20.8265849006
Cl            6.1889639779        3.2443971055       21.1480306287



     Writing output data file ./out/aiida.save/
     NEW-OLD atomic charge density approx. for the potential

     negative rho (up, down):  4.431E-02 0.000E+00

     total cpu time spent up to now is      287.5 secs

     Self-consistent Calculation

     iteration #  1     ecut=    60.00 Ry     beta= 0.40
     Davidson diagonalization with overlap

---- Real-time Memory Report at c_bands before calling an iterative solver
           632 MiB given to the printing process from OS
             0 MiB allocation reported by mallinfo(arena+hblkhd)
        324135 MiB available memory on the node where the printing process lives
------------------
     ethr =  1.00E-06,  avg # of iterations =  8.0

     negative rho (up, down):  4.430E-02 0.000E+00

     total cpu time spent up to now is      288.3 secs

     total energy              =    -111.14739653 Ry
     estimated scf accuracy    <       0.00002715 Ry

     iteration #  2     ecut=    60.00 Ry     beta= 0.40
     Davidson diagonalization with overlap

---- Real-time Memory Report at c_bands before calling an iterative solver
           632 MiB given to the printing process from OS
             0 MiB allocation reported by mallinfo(arena+hblkhd)
        324127 MiB available memory on the node where the printing process lives
------------------
     ethr =  1.09E-07,  avg # of iterations =  2.0

     negative rho (up, down):  4.437E-02 0.000E+00

     total cpu time spent up to now is      288.9 secs

     total energy              =    -111.14739756 Ry
     estimated scf accuracy    <       0.00000648 Ry

     iteration #  3     ecut=    60.00 Ry     beta= 0.40
     Davidson diagonalization with overlap

---- Real-time Memory Report at c_bands before calling an iterative solver
           632 MiB given to the printing process from OS
             0 MiB allocation reported by mallinfo(arena+hblkhd)
        324127 MiB available memory on the node where the printing process lives
------------------
     ethr =  2.59E-08,  avg # of iterations =  2.0

     negative rho (up, down):  4.437E-02 0.000E+00

     total cpu time spent up to now is      289.6 secs

     total energy              =    -111.14739822 Ry
     estimated scf accuracy    <       0.00000063 Ry

     iteration #  4     ecut=    60.00 Ry     beta= 0.40
     Davidson diagonalization with overlap

---- Real-time Memory Report at c_bands before calling an iterative solver
           632 MiB given to the printing process from OS
             0 MiB allocation reported by mallinfo(arena+hblkhd)
        324127 MiB available memory on the node where the printing process lives
------------------
     ethr =  2.52E-09,  avg # of iterations =  5.0

     negative rho (up, down):  4.433E-02 0.000E+00

     total cpu time spent up to now is      290.3 secs

     total energy              =    -111.14739845 Ry
     estimated scf accuracy    <       0.00000006 Ry

     iteration #  5     ecut=    60.00 Ry     beta= 0.40
     Davidson diagonalization with overlap

---- Real-time Memory Report at c_bands before calling an iterative solver
           632 MiB given to the printing process from OS
             0 MiB allocation reported by mallinfo(arena+hblkhd)
        324127 MiB available memory on the node where the printing process lives
------------------
     ethr =  2.58E-10,  avg # of iterations =  2.0

     negative rho (up, down):  4.431E-02 0.000E+00

     total cpu time spent up to now is      291.0 secs

     total energy              =    -111.14739846 Ry
     estimated scf accuracy    <          7.4E-09 Ry

     iteration #  6     ecut=    60.00 Ry     beta= 0.40
     Davidson diagonalization with overlap

---- Real-time Memory Report at c_bands before calling an iterative solver
           632 MiB given to the printing process from OS
             0 MiB allocation reported by mallinfo(arena+hblkhd)
        324127 MiB available memory on the node where the printing process lives
------------------
     ethr =  2.95E-11,  avg # of iterations =  2.0

     negative rho (up, down):  4.429E-02 0.000E+00

     total cpu time spent up to now is      291.7 secs

     total energy              =    -111.14739847 Ry
     estimated scf accuracy    <          1.6E-09 Ry

     iteration #  7     ecut=    60.00 Ry     beta= 0.40
     Davidson diagonalization with overlap

---- Real-time Memory Report at c_bands before calling an iterative solver
           632 MiB given to the printing process from OS
             0 MiB allocation reported by mallinfo(arena+hblkhd)
        324126 MiB available memory on the node where the printing process lives
------------------
     ethr =  6.39E-12,  avg # of iterations =  4.0

     negative rho (up, down):  4.429E-02 0.000E+00

     total cpu time spent up to now is      292.4 secs

     total energy              =    -111.14739847 Ry
     estimated scf accuracy    <          2.1E-10 Ry

     iteration #  8     ecut=    60.00 Ry     beta= 0.40
     Davidson diagonalization with overlap

---- Real-time Memory Report at c_bands before calling an iterative solver
           632 MiB given to the printing process from OS
             0 MiB allocation reported by mallinfo(arena+hblkhd)
        324124 MiB available memory on the node where the printing process lives
------------------
     ethr =  8.50E-13,  avg # of iterations =  2.0

     negative rho (up, down):  4.428E-02 0.000E+00

     total cpu time spent up to now is      293.1 secs

     End of self-consistent calculation

          k = 0.0000 0.0000 0.0000 ( 95217 PWs)   bands (ev):

   -21.6083 -20.7842 -20.7781 -13.1292 -10.5048 -10.4999  -9.3650  -8.6849
    -8.6749  -8.1670  -8.1613  -7.8047  -5.1390  -1.1456  -0.6022  -0.5047
    -0.3989

     occupation numbers 
     1.0000   1.0000   1.0000   1.0000   1.0000   1.0000   1.0000   1.0000
     1.0000   1.0000   1.0000   1.0000   0.5000   0.0000   0.0000   0.0000
     0.0000

     the Fermi energy is    -5.1112 ev

!    total energy              =    -111.14739846 Ry
     estimated scf accuracy    <          1.2E-11 Ry
     smearing contrib. (-TS)   =      -0.00482420 Ry
     internal energy E=F+TS    =    -111.14257427 Ry

     The total energy is F=E-TS. E is the sum of the following terms:
     one-electron contribution =    -399.20183045 Ry
     hartree contribution      =     201.80348742 Ry
     xc contribution           =     -33.93571574 Ry
     ewald contribution        =     120.19567013 Ry
     Dispersion Correction     =      -0.00418563 Ry
     one-center paw contrib.   =       0.00000000 Ry
      -> PAW hartree energy AE =       0.00000000 Ry
      -> PAW hartree energy PS =       0.00000000 Ry
      -> PAW xc energy AE      =       0.00000000 Ry
      -> PAW xc energy PS      =       0.00000000 Ry
      -> total E_H with PAW    =     201.80348742 Ry
      -> total E_XC with PAW   =     -33.93571574 Ry

     convergence has been achieved in   8 iterations

     negative rho (up, down):  4.428E-02 0.000E+00

     Forces acting on atoms (cartesian axes, Ry/au):

     atom    1 type  3   force =    -0.00017132    0.00052453    0.00174954
     atom    2 type  4   force =     0.00057740   -0.00019092   -0.00096564
     atom    3 type  4   force =    -0.00070769   -0.00064073   -0.00052402
     atom    4 type  4   force =     0.00030162    0.00030712   -0.00025988
     The non-local contrib.  to forces
     atom    1 type  3   force =    -0.00260801    0.03116965    0.15143614
     atom    2 type  4   force =    -0.06855848   -0.19366842   -0.03123680
     atom    3 type  4   force =     0.19436261    0.01055630   -0.07039889
     atom    4 type  4   force =    -0.11685561    0.13884261   -0.10183644
     The ionic contribution  to forces
     atom    1 type  3   force =     0.06941366   -0.71238900   -3.95837397
     atom    2 type  4   force =     2.57476265    5.90527443   -0.42486139
     atom    3 type  4   force =    -6.85041165   -0.61748713    1.39487475
     atom    4 type  4   force =     4.20623534   -4.57539830    2.98836061
     The local contribution  to forces
     atom    1 type  3   force =    -0.06703149    0.68364235    3.81820694
     atom    2 type  4   force =    -2.50559248   -5.71193767    0.45533942
     atom    3 type  4   force =     6.65540214    0.60632040   -1.32487166
     atom    4 type  4   force =    -4.08908262    4.43703641   -2.88661482
     The core correction contribution to forces
     atom    1 type  3   force =     0.00005056   -0.00188282   -0.00948674
     atom    2 type  4   force =    -0.00034473   -0.00056458   -0.00010569
     atom    3 type  4   force =     0.00068419    0.00009546   -0.00014985
     atom    4 type  4   force =    -0.00041827    0.00038533   -0.00028333
     The Hubbard contrib.    to forces
     atom    1 type  3   force =     0.00000000    0.00000000    0.00000000
     atom    2 type  4   force =     0.00000000    0.00000000    0.00000000
     atom    3 type  4   force =     0.00000000    0.00000000    0.00000000
     atom    4 type  4   force =     0.00000000    0.00000000    0.00000000
     The SCF correction term to forces
     atom    1 type  3   force =     0.00000001   -0.00000022   -0.00000023
     atom    2 type  4   force =    -0.00000304    0.00000059    0.00000204
     atom    3 type  4   force =    -0.00000146    0.00000191   -0.00000063
     atom    4 type  4   force =     0.00000039    0.00000035    0.00000040

     Dispersion contribution to forces:
     atom    1 type  3   force =     0.00000489   -0.00001601   -0.00003263
     atom    2 type  4   force =     0.00031439    0.00070414   -0.00010326
     atom    3 type  4   force =    -0.00074260   -0.00012826    0.00002223
     atom    4 type  4   force =     0.00042332   -0.00055987    0.00011366

     Total force =     0.002471     Total SCF correction =     0.000005

     Total Dispersion Force =     0.001296


     Computing stress (Cartesian axis) and pressure


     negative rho (up, down):  4.428E-02 0.000E+00
          total   stress  (Ry/bohr**3)                   (kbar)     P=        0.01
   0.00000015   0.00000012   0.00000000            0.02        0.02        0.00
   0.00000012   0.00000019  -0.00000002            0.02        0.03       -0.00
   0.00000000  -0.00000002  -0.00000008            0.00       -0.00       -0.01

     kinetic stress (kbar)    145.57      0.05     -0.13
                                0.05    145.80      1.42
                               -0.13      1.42    152.29

     local   stress (kbar)  -1978.72     -1.95     -6.73
                               -1.95  -2095.46     56.47
                               -6.73     56.47   1411.56

     nonloc. stress (kbar)    136.31      0.01      0.01
                                0.01    136.29     -0.14
                                0.01     -0.14    135.64

     hartree stress (kbar)    939.86      0.90      2.73
                                0.90    996.55    -21.83
                                2.73    -21.83   -713.40

     exc-cor stress (kbar)     43.46     -0.00      0.00
                               -0.00     43.45     -0.03
                                0.00     -0.03     43.32

     corecor stress (kbar)    -90.35     -0.00     -0.00
                               -0.00    -90.35      0.02
                               -0.00      0.02    -90.26

     ewald   stress (kbar)    803.87      1.01      4.13
                                1.01    863.72    -35.91
                                4.13    -35.91   -939.16

     hubbard stress (kbar)      0.00      0.00      0.00
                                0.00      0.00      0.00
                                0.00      0.00      0.00

     DFT-D   stress (kbar)      0.02      0.00      0.00
                                0.00      0.01     -0.00
                                0.00     -0.00      0.00

     XDM     stress (kbar)      0.00      0.00      0.00
                                0.00      0.00      0.00
                                0.00      0.00      0.00

     dft-nl  stress (kbar)      0.00      0.00      0.00
                                0.00      0.00      0.00
                                0.00      0.00      0.00

     TS-vdW  stress (kbar)      0.00      0.00      0.00
                                0.00      0.00      0.00
                                0.00      0.00      0.00


                                0.00      0.00      0.00
                                0.00      0.00      0.00


                                0.00      0.00      0.00

     Energy error            =      1.6E-05 Ry
     Gradient error          =      1.7E-03 Ry/Bohr

     number of scf cycles    =  23
     number of bfgs steps    =  22

     energy             old  =    -111.1473821734 Ry
     energy             new  =    -111.1473984645 Ry

     CASE: energy            _new < energy            _old

     new trust radius        =       0.0525452230 bohr
     new conv_thr            =       0.0000000002 Ry


ATOMIC_POSITIONS (angstrom)
Si            5.0244154153        4.5902305711       20.1266714954
Cl            5.7190125352        6.5034844247       20.4349240986
Cl            3.0934917108        4.4791916370       20.8284675642
Cl            6.1950803387        3.2561433672       21.1712168418



     Writing output data file ./out/aiida.save/
     NEW-OLD atomic charge density approx. for the potential

     negative rho (up, down):  4.439E-02 0.000E+00

     total cpu time spent up to now is      300.8 secs

     Self-consistent Calculation

     iteration #  1     ecut=    60.00 Ry     beta= 0.40
     Davidson diagonalization with overlap

---- Real-time Memory Report at c_bands before calling an iterative solver
           633 MiB given to the printing process from OS
             0 MiB allocation reported by mallinfo(arena+hblkhd)
        324133 MiB available memory on the node where the printing process lives
------------------
     ethr =  1.00E-06,  avg # of iterations =  9.0

     negative rho (up, down):  4.436E-02 0.000E+00

     total cpu time spent up to now is      301.6 secs

     total energy              =    -111.14741671 Ry
     estimated scf accuracy    <       0.00006069 Ry

     iteration #  2     ecut=    60.00 Ry     beta= 0.40
     Davidson diagonalization with overlap

---- Real-time Memory Report at c_bands before calling an iterative solver
           633 MiB given to the printing process from OS
             0 MiB allocation reported by mallinfo(arena+hblkhd)
        324121 MiB available memory on the node where the printing process lives
------------------
     ethr =  2.43E-07,  avg # of iterations =  2.0

     negative rho (up, down):  4.447E-02 0.000E+00

     total cpu time spent up to now is      302.3 secs

     total energy              =    -111.14741825 Ry
     estimated scf accuracy    <       0.00001421 Ry

     iteration #  3     ecut=    60.00 Ry     beta= 0.40
     Davidson diagonalization with overlap

---- Real-time Memory Report at c_bands before calling an iterative solver
           633 MiB given to the printing process from OS
             0 MiB allocation reported by mallinfo(arena+hblkhd)
        324122 MiB available memory on the node where the printing process lives
------------------
     ethr =  5.69E-08,  avg # of iterations =  1.0

     negative rho (up, down):  4.448E-02 0.000E+00

     total cpu time spent up to now is      303.0 secs

     total energy              =    -111.14741914 Ry
     estimated scf accuracy    <       0.00000149 Ry

     iteration #  4     ecut=    60.00 Ry     beta= 0.40
     Davidson diagonalization with overlap

---- Real-time Memory Report at c_bands before calling an iterative solver
           633 MiB given to the printing process from OS
             0 MiB allocation reported by mallinfo(arena+hblkhd)
        324122 MiB available memory on the node where the printing process lives
------------------
     ethr =  5.95E-09,  avg # of iterations =  4.0

     negative rho (up, down):  4.442E-02 0.000E+00

     total cpu time spent up to now is      303.7 secs

     total energy              =    -111.14741938 Ry
     estimated scf accuracy    <       0.00000015 Ry

     iteration #  5     ecut=    60.00 Ry     beta= 0.40
     Davidson diagonalization with overlap

---- Real-time Memory Report at c_bands before calling an iterative solver
           633 MiB given to the printing process from OS
             0 MiB allocation reported by mallinfo(arena+hblkhd)
        324122 MiB available memory on the node where the printing process lives
------------------
     ethr =  5.99E-10,  avg # of iterations =  3.0

     negative rho (up, down):  4.437E-02 0.000E+00

     total cpu time spent up to now is      304.4 secs

     total energy              =    -111.14741941 Ry
     estimated scf accuracy    <       0.00000002 Ry

     iteration #  6     ecut=    60.00 Ry     beta= 0.40
     Davidson diagonalization with overlap

---- Real-time Memory Report at c_bands before calling an iterative solver
           633 MiB given to the printing process from OS
             0 MiB allocation reported by mallinfo(arena+hblkhd)
        324122 MiB available memory on the node where the printing process lives
------------------
     ethr =  6.15E-11,  avg # of iterations =  4.0

     negative rho (up, down):  4.435E-02 0.000E+00

     total cpu time spent up to now is      305.1 secs

     total energy              =    -111.14741942 Ry
     estimated scf accuracy    <          3.6E-09 Ry

     iteration #  7     ecut=    60.00 Ry     beta= 0.40
     Davidson diagonalization with overlap

---- Real-time Memory Report at c_bands before calling an iterative solver
           633 MiB given to the printing process from OS
             0 MiB allocation reported by mallinfo(arena+hblkhd)
        324121 MiB available memory on the node where the printing process lives
------------------
     ethr =  1.42E-11,  avg # of iterations =  2.0

     negative rho (up, down):  4.433E-02 0.000E+00

     total cpu time spent up to now is      305.8 secs

     total energy              =    -111.14741942 Ry
     estimated scf accuracy    <          1.7E-10 Ry

     iteration #  8     ecut=    60.00 Ry     beta= 0.40
     Davidson diagonalization with overlap

---- Real-time Memory Report at c_bands before calling an iterative solver
           633 MiB given to the printing process from OS
             0 MiB allocation reported by mallinfo(arena+hblkhd)
        324122 MiB available memory on the node where the printing process lives
------------------
     ethr =  6.87E-13,  avg # of iterations =  5.0

     negative rho (up, down):  4.432E-02 0.000E+00

     total cpu time spent up to now is      306.4 secs

     End of self-consistent calculation

          k = 0.0000 0.0000 0.0000 ( 95217 PWs)   bands (ev):

   -21.6075 -20.7841 -20.7751 -13.1290 -10.5056 -10.4966  -9.3648  -8.6860
    -8.6727  -8.1670  -8.1573  -7.8033  -5.1464  -1.1385  -0.6084  -0.5049
    -0.3990

     occupation numbers 
     1.0000   1.0000   1.0000   1.0000   1.0000   1.0000   1.0000   1.0000
     1.0000   1.0000   1.0000   1.0000   0.5000   0.0000   0.0000   0.0000
     0.0000

     the Fermi energy is    -5.1185 ev

!    total energy              =    -111.14741944 Ry
     estimated scf accuracy    <          2.0E-11 Ry
     smearing contrib. (-TS)   =      -0.00482420 Ry
     internal energy E=F+TS    =    -111.14259524 Ry

     The total energy is F=E-TS. E is the sum of the following terms:
     one-electron contribution =    -399.10369598 Ry
     hartree contribution      =     201.75480902 Ry
     xc contribution           =     -33.93520971 Ry
     ewald contribution        =     120.14568256 Ry
     Dispersion Correction     =      -0.00418114 Ry
     one-center paw contrib.   =       0.00000000 Ry
      -> PAW hartree energy AE =       0.00000000 Ry
      -> PAW hartree energy PS =       0.00000000 Ry
      -> PAW xc energy AE      =       0.00000000 Ry
      -> PAW xc energy PS      =       0.00000000 Ry
      -> total E_H with PAW    =     201.75480902 Ry
      -> total E_XC with PAW   =     -33.93520971 Ry

     convergence has been achieved in   8 iterations

     negative rho (up, down):  4.432E-02 0.000E+00

     Forces acting on atoms (cartesian axes, Ry/au):

     atom    1 type  3   force =    -0.00013013    0.00078185    0.00230187
     atom    2 type  4   force =     0.00083833   -0.00051051   -0.00113160
     atom    3 type  4   force =    -0.00096362   -0.00087700   -0.00065409
     atom    4 type  4   force =     0.00025541    0.00060565   -0.00051618
     The non-local contrib.  to forces
     atom    1 type  3   force =    -0.00251264    0.03326910    0.15060806
     atom    2 type  4   force =    -0.06657059   -0.19494103   -0.02894841
     atom    3 type  4   force =     0.19399805    0.00976296   -0.07094891
     atom    4 type  4   force =    -0.11707987    0.13712355   -0.10451201
     The ionic contribution  to forces
     atom    1 type  3   force =     0.08956730   -0.76686202   -3.95440284
     atom    2 type  4   force =     2.53852218    5.92135355   -0.54993631
     atom    3 type  4   force =    -6.85322731   -0.62900918    1.40518384
     atom    4 type  4   force =     4.22513783   -4.52548235    3.09915532
     The local contribution  to forces
     atom    1 type  3   force =    -0.08716783    0.73639089    3.81553120
     atom    2 type  4   force =    -2.47108570   -5.72708181    0.57794806
     atom    3 type  4   force =     6.65833475    0.61839816   -1.33477533
     atom    4 type  4   force =    -4.10781443    4.38914318   -2.99500567
     The core correction contribution to forces
     atom    1 type  3   force =    -0.00002160   -0.00199940   -0.00940230
     atom    2 type  4   force =    -0.00035641   -0.00054600   -0.00008688
     atom    3 type  4   force =     0.00069865    0.00011146   -0.00014045
     atom    4 type  4   force =    -0.00041723    0.00036156   -0.00027319
     The Hubbard contrib.    to forces
     atom    1 type  3   force =     0.00000000    0.00000000    0.00000000
     atom    2 type  4   force =     0.00000000    0.00000000    0.00000000
     atom    3 type  4   force =     0.00000000    0.00000000    0.00000000
     atom    4 type  4   force =     0.00000000    0.00000000    0.00000000
     The SCF correction term to forces
     atom    1 type  3   force =     0.00000064   -0.00000034    0.00000046
     atom    2 type  4   force =    -0.00000064    0.00000218    0.00000286
     atom    3 type  4   force =    -0.00000243    0.00000155    0.00000138
     atom    4 type  4   force =     0.00000108    0.00000129    0.00000115

     Dispersion contribution to forces:
     atom    1 type  3   force =     0.00000496   -0.00001706   -0.00003270
     atom    2 type  4   force =     0.00033044    0.00070192   -0.00011092
     atom    3 type  4   force =    -0.00076438   -0.00014262    0.00002539
     atom    4 type  4   force =     0.00042898   -0.00054224    0.00011823

     Total force =     0.003316     Total SCF correction =     0.000005

     Total Dispersion Force =     0.001309


     Computing stress (Cartesian axis) and pressure


     negative rho (up, down):  4.432E-02 0.000E+00
          total   stress  (Ry/bohr**3)                   (kbar)     P=        0.01
   0.00000020   0.00000017  -0.00000001            0.03        0.02       -0.00
   0.00000017   0.00000009  -0.00000001            0.02        0.01       -0.00
  -0.00000001  -0.00000001  -0.00000011           -0.00       -0.00       -0.02

     kinetic stress (kbar)    145.60      0.07     -0.14
                                0.07    145.82      1.51
                               -0.14      1.51    152.22

     local   stress (kbar)  -1977.72     -1.91     -7.24
                               -1.91  -2092.55     60.24
                               -7.24     60.24   1408.25

     nonloc. stress (kbar)    136.32      0.01      0.01
                                0.01    136.28     -0.14
                                0.01     -0.14    135.64

     hartree stress (kbar)    939.42      0.90      2.95
                                0.90    995.31    -23.30
                                2.95    -23.30   -712.00

     exc-cor stress (kbar)     43.46     -0.00      0.00
                               -0.00     43.45     -0.03
                                0.00     -0.03     43.32

     corecor stress (kbar)    -90.35     -0.00     -0.00
                               -0.00    -90.34      0.02
                               -0.00      0.02    -90.26

     ewald   stress (kbar)    803.28      0.95      4.42
                                0.95    862.04    -38.29
                                4.42    -38.29   -937.19

     hubbard stress (kbar)      0.00      0.00      0.00
                                0.00      0.00      0.00
                                0.00      0.00      0.00

     DFT-D   stress (kbar)      0.02      0.00      0.00
                                0.00      0.01     -0.01
                                0.00     -0.01      0.00

     XDM     stress (kbar)      0.00      0.00      0.00
                                0.00      0.00      0.00
                                0.00      0.00      0.00

     dft-nl  stress (kbar)      0.00      0.00      0.00
                                0.00      0.00      0.00
                                0.00      0.00      0.00

     TS-vdW  stress (kbar)      0.00      0.00      0.00
                                0.00      0.00      0.00
                                0.00      0.00      0.00


                                0.00      0.00      0.00
                                0.00      0.00      0.00


                                0.00      0.00      0.00

     Energy error            =      2.1E-05 Ry
     Gradient error          =      2.3E-03 Ry/Bohr

     number of scf cycles    =  24
     number of bfgs steps    =  23

     energy             old  =    -111.1473984645 Ry
     energy             new  =    -111.1474194419 Ry

     CASE: energy            _new < energy            _old

     new trust radius        =       0.0788178346 bohr
     new conv_thr            =       0.0000000002 Ry


ATOMIC_POSITIONS (angstrom)
Si            5.0279928197        4.5780368917       20.1277513292
Cl            5.7021358430        6.5055257179       20.3968371211
Cl            3.0977219356        4.4714715887       20.8311008817
Cl            6.2041494017        3.2740158017       21.2055906680



     Writing output data file ./out/aiida.save/
     NEW-OLD atomic charge density approx. for the potential

     negative rho (up, down):  4.437E-02 0.000E+00

     total cpu time spent up to now is      314.2 secs

     Self-consistent Calculation

     iteration #  1     ecut=    60.00 Ry     beta= 0.40
     Davidson diagonalization with overlap

---- Real-time Memory Report at c_bands before calling an iterative solver
           634 MiB given to the printing process from OS
             0 MiB allocation reported by mallinfo(arena+hblkhd)
        324129 MiB available memory on the node where the printing process lives
------------------
     ethr =  1.00E-06,  avg # of iterations = 10.0

     negative rho (up, down):  4.432E-02 0.000E+00

     total cpu time spent up to now is      315.0 secs

     total energy              =    -111.14743891 Ry
     estimated scf accuracy    <       0.00013389 Ry

     iteration #  2     ecut=    60.00 Ry     beta= 0.40
     Davidson diagonalization with overlap

---- Real-time Memory Report at c_bands before calling an iterative solver
           634 MiB given to the printing process from OS
             0 MiB allocation reported by mallinfo(arena+hblkhd)
        324121 MiB available memory on the node where the printing process lives
------------------
     ethr =  5.36E-07,  avg # of iterations =  1.0

     negative rho (up, down):  4.450E-02 0.000E+00

     total cpu time spent up to now is      315.7 secs

     total energy              =    -111.14744081 Ry
     estimated scf accuracy    <       0.00003142 Ry

     iteration #  3     ecut=    60.00 Ry     beta= 0.40
     Davidson diagonalization with overlap

---- Real-time Memory Report at c_bands before calling an iterative solver
           634 MiB given to the printing process from OS
             0 MiB allocation reported by mallinfo(arena+hblkhd)
        324121 MiB available memory on the node where the printing process lives
------------------
     ethr =  1.26E-07,  avg # of iterations =  1.0

     negative rho (up, down):  4.452E-02 0.000E+00

     total cpu time spent up to now is      316.4 secs

     total energy              =    -111.14744260 Ry
     estimated scf accuracy    <       0.00000323 Ry

     iteration #  4     ecut=    60.00 Ry     beta= 0.40
     Davidson diagonalization with overlap

---- Real-time Memory Report at c_bands before calling an iterative solver
           634 MiB given to the printing process from OS
             0 MiB allocation reported by mallinfo(arena+hblkhd)
        324121 MiB available memory on the node where the printing process lives
------------------
     ethr =  1.29E-08,  avg # of iterations =  2.0

     negative rho (up, down):  4.443E-02 0.000E+00

     total cpu time spent up to now is      317.1 secs

     total energy              =    -111.14744286 Ry
     estimated scf accuracy    <       0.00000025 Ry

     iteration #  5     ecut=    60.00 Ry     beta= 0.40
     Davidson diagonalization with overlap

---- Real-time Memory Report at c_bands before calling an iterative solver
           634 MiB given to the printing process from OS
             0 MiB allocation reported by mallinfo(arena+hblkhd)
        324121 MiB available memory on the node where the printing process lives
------------------
     ethr =  1.02E-09,  avg # of iterations =  5.0

     negative rho (up, down):  4.434E-02 0.000E+00

     total cpu time spent up to now is      320.7 secs

     total energy              =    -111.14744294 Ry
     estimated scf accuracy    <       0.00000003 Ry

     iteration #  6     ecut=    60.00 Ry     beta= 0.40
     Davidson diagonalization with overlap

---- Real-time Memory Report at c_bands before calling an iterative solver
           634 MiB given to the printing process from OS
             0 MiB allocation reported by mallinfo(arena+hblkhd)
        324120 MiB available memory on the node where the printing process lives
------------------
     ethr =  1.22E-10,  avg # of iterations =  2.0

     negative rho (up, down):  4.430E-02 0.000E+00

     total cpu time spent up to now is      321.4 secs

     total energy              =    -111.14744295 Ry
     estimated scf accuracy    <          3.8E-09 Ry

     iteration #  7     ecut=    60.00 Ry     beta= 0.40
     Davidson diagonalization with overlap

---- Real-time Memory Report at c_bands before calling an iterative solver
           634 MiB given to the printing process from OS
             0 MiB allocation reported by mallinfo(arena+hblkhd)
        324120 MiB available memory on the node where the printing process lives
------------------
     ethr =  1.53E-11,  avg # of iterations =  4.0

     negative rho (up, down):  4.428E-02 0.000E+00

     total cpu time spent up to now is      322.0 secs

     total energy              =    -111.14744296 Ry
     estimated scf accuracy    <          5.7E-10 Ry

     iteration #  8     ecut=    60.00 Ry     beta= 0.40
     Davidson diagonalization with overlap

---- Real-time Memory Report at c_bands before calling an iterative solver
           634 MiB given to the printing process from OS
             0 MiB allocation reported by mallinfo(arena+hblkhd)
        324120 MiB available memory on the node where the printing process lives
------------------
     ethr =  2.26E-12,  avg # of iterations =  2.0

     negative rho (up, down):  4.426E-02 0.000E+00

     total cpu time spent up to now is      322.7 secs

     End of self-consistent calculation

          k = 0.0000 0.0000 0.0000 ( 95217 PWs)   bands (ev):

   -21.6057 -20.7838 -20.7713 -13.1287 -10.5067 -10.4920  -9.3641  -8.6880
    -8.6690  -8.1676  -8.1522  -7.8017  -5.1562  -1.1317  -0.6171  -0.5048
    -0.3993

     occupation numbers 
     1.0000   1.0000   1.0000   1.0000   1.0000   1.0000   1.0000   1.0000
     1.0000   1.0000   1.0000   1.0000   0.5000   0.0000   0.0000   0.0000
     0.0000

     the Fermi energy is    -5.1283 ev

!    total energy              =    -111.14744297 Ry
     estimated scf accuracy    <          1.1E-10 Ry
     smearing contrib. (-TS)   =      -0.00482420 Ry
     internal energy E=F+TS    =    -111.14261878 Ry

     The total energy is F=E-TS. E is the sum of the following terms:
     one-electron contribution =    -398.92728322 Ry
     hartree contribution      =     201.66694265 Ry
     xc contribution           =     -33.93419124 Ry
     ewald contribution        =     120.05608831 Ry
     Dispersion Correction     =      -0.00417527 Ry
     one-center paw contrib.   =       0.00000000 Ry
      -> PAW hartree energy AE =       0.00000000 Ry
      -> PAW hartree energy PS =       0.00000000 Ry
      -> PAW xc energy AE      =       0.00000000 Ry
      -> PAW xc energy PS      =       0.00000000 Ry
      -> total E_H with PAW    =     201.66694265 Ry
      -> total E_XC with PAW   =     -33.93419124 Ry

     convergence has been achieved in   8 iterations

     negative rho (up, down):  4.426E-02 0.000E+00

     Forces acting on atoms (cartesian axes, Ry/au):

     atom    1 type  3   force =     0.00004506    0.00119097    0.00304026
     atom    2 type  4   force =     0.00117849   -0.00114149   -0.00130720
     atom    3 type  4   force =    -0.00132623   -0.00120980   -0.00078656
     atom    4 type  4   force =     0.00010269    0.00116033   -0.00094650
     The non-local contrib.  to forces
     atom    1 type  3   force =    -0.00231384    0.03646749    0.14956044
     atom    2 type  4   force =    -0.06367688   -0.19691919   -0.02528545
     atom    3 type  4   force =     0.19351494    0.00867081   -0.07154756
     atom    4 type  4   force =    -0.11747538    0.13468328   -0.10838251
     The ionic contribution  to forces
     atom    1 type  3   force =     0.12135358   -0.84612532   -3.94227445
     atom    2 type  4   force =     2.48365273    5.94069769   -0.73780666
     atom    3 type  4   force =    -6.85633035   -0.64669533    1.41920830
     atom    4 type  4   force =     4.25132403   -4.44787704    3.26087281
     The local contribution  to forces
     atom    1 type  3   force =    -0.11885564    0.81305920    3.80509835
     atom    2 type  4   force =    -2.41878622   -5.74510571    0.76196151
     atom    3 type  4   force =     6.66156206    0.63685168   -1.34835332
     atom    4 type  4   force =    -4.13376310    4.31454006   -3.15330488
     The core correction contribution to forces
     atom    1 type  3   force =    -0.00014441   -0.00218747   -0.00931437
     atom    2 type  4   force =    -0.00036991   -0.00050818   -0.00006299
     atom    3 type  4   force =     0.00072029    0.00013384   -0.00013071
     atom    4 type  4   force =    -0.00041036    0.00031919   -0.00025522
     The Hubbard contrib.    to forces
     atom    1 type  3   force =     0.00000000    0.00000000    0.00000000
     atom    2 type  4   force =     0.00000000    0.00000000    0.00000000
     atom    3 type  4   force =     0.00000000    0.00000000    0.00000000
     atom    4 type  4   force =     0.00000000    0.00000000    0.00000000
     The SCF correction term to forces
     atom    1 type  3   force =     0.00000164   -0.00000440    0.00000423
     atom    2 type  4   force =     0.00000813    0.00000178    0.00000824
     atom    3 type  4   force =     0.00000011   -0.00000838    0.00000758
     atom    4 type  4   force =    -0.00000619    0.00000561    0.00000133

     Dispersion contribution to forces:
     atom    1 type  3   force =     0.00000504   -0.00001862   -0.00003278
     atom    2 type  4   force =     0.00035194    0.00069202   -0.00012067
     atom    3 type  4   force =    -0.00079198   -0.00016253    0.00003032
     atom    4 type  4   force =     0.00043500   -0.00051087    0.00012313

     Total force =     0.004600     Total SCF correction =     0.000019

     Total Dispersion Force =     0.001319


     Computing stress (Cartesian axis) and pressure


     negative rho (up, down):  4.426E-02 0.000E+00
          total   stress  (Ry/bohr**3)                   (kbar)     P=        0.00
   0.00000026   0.00000024  -0.00000004            0.04        0.03       -0.01
   0.00000024  -0.00000009   0.00000001            0.03       -0.01        0.00
  -0.00000004   0.00000001  -0.00000016           -0.01        0.00       -0.02

     kinetic stress (kbar)    145.65      0.11     -0.15
                                0.11    145.85      1.64
                               -0.15      1.64    152.11

     local   stress (kbar)  -1976.14     -1.89     -8.06
                               -1.89  -2087.84     65.82
                               -8.06     65.82   1403.04

     nonloc. stress (kbar)    136.32      0.02      0.00
                                0.02    136.26     -0.16
                                0.00     -0.16    135.65

     hartree stress (kbar)    938.70      0.92      3.30
                                0.92    993.28    -25.47
                                3.30    -25.47   -709.79

     exc-cor stress (kbar)     43.46     -0.00      0.00
                               -0.00     43.45     -0.03
                                0.00     -0.03     43.32

     corecor stress (kbar)    -90.35     -0.00     -0.00
                               -0.00    -90.34      0.02
                               -0.00      0.02    -90.26

     ewald   stress (kbar)    802.37      0.88      4.90
                                0.88    859.31    -41.81
                                4.90    -41.81   -934.09

     hubbard stress (kbar)      0.00      0.00      0.00
                                0.00      0.00      0.00
                                0.00      0.00      0.00

     DFT-D   stress (kbar)      0.02      0.00      0.00
                                0.00      0.01     -0.01
                                0.00     -0.01      0.00

     XDM     stress (kbar)      0.00      0.00      0.00
                                0.00      0.00      0.00
                                0.00      0.00      0.00

     dft-nl  stress (kbar)      0.00      0.00      0.00
                                0.00      0.00      0.00
                                0.00      0.00      0.00

     TS-vdW  stress (kbar)      0.00      0.00      0.00
                                0.00      0.00      0.00
                                0.00      0.00      0.00


                                0.00      0.00      0.00
                                0.00      0.00      0.00


                                0.00      0.00      0.00

     Energy error            =      2.4E-05 Ry
     Gradient error          =      3.0E-03 Ry/Bohr

     number of scf cycles    =  25
     number of bfgs steps    =  24

     energy             old  =    -111.1474194419 Ry
     energy             new  =    -111.1474429749 Ry

     CASE: energy            _new < energy            _old

     new trust radius        =       0.0869501608 bohr
     new conv_thr            =       0.0000000002 Ry


ATOMIC_POSITIONS (angstrom)
Si            5.0321418843        4.5651814400       20.1304001532
Cl            5.6839285939        6.5068775788       20.3546023404
Cl            3.1020942457        4.4625878557       20.8336459137
Cl            6.2138352761        3.2944031255       21.2426315926



     Writing output data file ./out/aiida.save/
     NEW-OLD atomic charge density approx. for the potential

     negative rho (up, down):  4.423E-02 0.000E+00

     total cpu time spent up to now is      330.5 secs

     Self-consistent Calculation

     iteration #  1     ecut=    60.00 Ry     beta= 0.40
     Davidson diagonalization with overlap

---- Real-time Memory Report at c_bands before calling an iterative solver
           634 MiB given to the printing process from OS
             0 MiB allocation reported by mallinfo(arena+hblkhd)
        324129 MiB available memory on the node where the printing process lives
------------------
     ethr =  1.00E-06,  avg # of iterations = 10.0

     negative rho (up, down):  4.418E-02 0.000E+00

     total cpu time spent up to now is      331.3 secs

     total energy              =    -111.14746209 Ry
     estimated scf accuracy    <       0.00015810 Ry

     iteration #  2     ecut=    60.00 Ry     beta= 0.40
     Davidson diagonalization with overlap

---- Real-time Memory Report at c_bands before calling an iterative solver
           634 MiB given to the printing process from OS
             0 MiB allocation reported by mallinfo(arena+hblkhd)
        324120 MiB available memory on the node where the printing process lives
------------------
     ethr =  6.32E-07,  avg # of iterations =  1.0

     negative rho (up, down):  4.440E-02 0.000E+00

     total cpu time spent up to now is      332.0 secs

     total energy              =    -111.14746385 Ry
     estimated scf accuracy    <       0.00003758 Ry

     iteration #  3     ecut=    60.00 Ry     beta= 0.40
     Davidson diagonalization with overlap

---- Real-time Memory Report at c_bands before calling an iterative solver
           634 MiB given to the printing process from OS
             0 MiB allocation reported by mallinfo(arena+hblkhd)
        324120 MiB available memory on the node where the printing process lives
------------------
     ethr =  1.50E-07,  avg # of iterations =  2.0

     negative rho (up, down):  4.440E-02 0.000E+00

     total cpu time spent up to now is      332.7 secs

     total energy              =    -111.14746616 Ry
     estimated scf accuracy    <       0.00000363 Ry

     iteration #  4     ecut=    60.00 Ry     beta= 0.40
     Davidson diagonalization with overlap

---- Real-time Memory Report at c_bands before calling an iterative solver
           634 MiB given to the printing process from OS
             0 MiB allocation reported by mallinfo(arena+hblkhd)
        324121 MiB available memory on the node where the printing process lives
------------------
     ethr =  1.45E-08,  avg # of iterations =  2.0

     negative rho (up, down):  4.431E-02 0.000E+00

     total cpu time spent up to now is      333.3 secs

     total energy              =    -111.14746640 Ry
     estimated scf accuracy    <       0.00000028 Ry

     iteration #  5     ecut=    60.00 Ry     beta= 0.40
     Davidson diagonalization with overlap

---- Real-time Memory Report at c_bands before calling an iterative solver
           634 MiB given to the printing process from OS
             0 MiB allocation reported by mallinfo(arena+hblkhd)
        324121 MiB available memory on the node where the printing process lives
------------------
     ethr =  1.12E-09,  avg # of iterations =  5.0

     negative rho (up, down):  4.421E-02 0.000E+00

     total cpu time spent up to now is      334.0 secs

     total energy              =    -111.14746647 Ry
     estimated scf accuracy    <       0.00000003 Ry

     iteration #  6     ecut=    60.00 Ry     beta= 0.40
     Davidson diagonalization with overlap

---- Real-time Memory Report at c_bands before calling an iterative solver
           634 MiB given to the printing process from OS
             0 MiB allocation reported by mallinfo(arena+hblkhd)
        324120 MiB available memory on the node where the printing process lives
------------------
     ethr =  1.40E-10,  avg # of iterations =  2.0

     negative rho (up, down):  4.416E-02 0.000E+00

     total cpu time spent up to now is      334.7 secs

     total energy              =    -111.14746648 Ry
     estimated scf accuracy    <          3.9E-09 Ry

     iteration #  7     ecut=    60.00 Ry     beta= 0.40
     Davidson diagonalization with overlap

---- Real-time Memory Report at c_bands before calling an iterative solver
           634 MiB given to the printing process from OS
             0 MiB allocation reported by mallinfo(arena+hblkhd)
        324120 MiB available memory on the node where the printing process lives
------------------
     ethr =  1.58E-11,  avg # of iterations =  4.0

     negative rho (up, down):  4.413E-02 0.000E+00

     total cpu time spent up to now is      335.4 secs

     total energy              =    -111.14746649 Ry
     estimated scf accuracy    <          4.0E-10 Ry

     iteration #  8     ecut=    60.00 Ry     beta= 0.40
     Davidson diagonalization with overlap

---- Real-time Memory Report at c_bands before calling an iterative solver
           634 MiB given to the printing process from OS
             0 MiB allocation reported by mallinfo(arena+hblkhd)
        324120 MiB available memory on the node where the printing process lives
------------------
     ethr =  1.61E-12,  avg # of iterations =  2.0

     negative rho (up, down):  4.411E-02 0.000E+00

     total cpu time spent up to now is      336.1 secs

     End of self-consistent calculation

          k = 0.0000 0.0000 0.0000 ( 95217 PWs)   bands (ev):

   -21.6052 -20.7856 -20.7683 -13.1291 -10.5096 -10.4882  -9.3640  -8.6909
    -8.6659  -8.1706  -8.1485  -7.8012  -5.1615  -1.1278  -0.6235  -0.5009
    -0.3995

     occupation numbers 
     1.0000   1.0000   1.0000   1.0000   1.0000   1.0000   1.0000   1.0000
     1.0000   1.0000   1.0000   1.0000   0.5000   0.0000   0.0000   0.0000
     0.0000

     the Fermi energy is    -5.1336 ev

!    total energy              =    -111.14746651 Ry
     estimated scf accuracy    <          7.3E-11 Ry
     smearing contrib. (-TS)   =      -0.00482420 Ry
     internal energy E=F+TS    =    -111.14264232 Ry

     The total energy is F=E-TS. E is the sum of the following terms:
     one-electron contribution =    -398.71832727 Ry
     hartree contribution      =     201.56210742 Ry
     xc contribution           =     -33.93350096 Ry
     ewald contribution        =     119.95124760 Ry
     Dispersion Correction     =      -0.00416910 Ry
     one-center paw contrib.   =       0.00000000 Ry
      -> PAW hartree energy AE =       0.00000000 Ry
      -> PAW hartree energy PS =       0.00000000 Ry
      -> PAW xc energy AE      =       0.00000000 Ry
      -> PAW xc energy PS      =       0.00000000 Ry
      -> total E_H with PAW    =     201.56210742 Ry
      -> total E_XC with PAW   =     -33.93350096 Ry

     convergence has been achieved in   8 iterations

     negative rho (up, down):  4.411E-02 0.000E+00

     Forces acting on atoms (cartesian axes, Ry/au):

     atom    1 type  3   force =     0.00008565    0.00155213    0.00334760
     atom    2 type  4   force =     0.00158252   -0.00167877   -0.00131731
     atom    3 type  4   force =    -0.00172906   -0.00152050   -0.00080320
     atom    4 type  4   force =     0.00006089    0.00164714   -0.00122710
     The non-local contrib.  to forces
     atom    1 type  3   force =    -0.00226713    0.04003621    0.14853164
     atom    2 type  4   force =    -0.06053421   -0.19880346   -0.02075189
     atom    3 type  4   force =     0.19309555    0.00768215   -0.07175539
     atom    4 type  4   force =    -0.11776577    0.13196846   -0.11210127
     The ionic contribution  to forces
     atom    1 type  3   force =     0.15626720   -0.92945552   -3.91937016
     atom    2 type  4   force =     2.42369827    5.95892701   -0.94583770
     atom    3 type  4   force =    -6.85939925   -0.66730289    1.43174792
     atom    4 type  4   force =     4.27943378   -4.36216860    3.43345994
     The local contribution  to forces
     atom    1 type  3   force =    -0.15366597    0.89340544    3.78346273
     atom    2 type  4   force =    -2.36157287   -5.76200164    0.96544598
     atom    3 type  4   force =     6.66464912    0.65813585   -1.36070942
     atom    4 type  4   force =    -4.16162774    4.23203718   -3.32246083
     The core correction contribution to forces
     atom    1 type  3   force =    -0.00025412   -0.00240883   -0.00924638
     atom    2 type  4   force =    -0.00038631   -0.00047766   -0.00004801
     atom    3 type  4   force =     0.00074385    0.00015512   -0.00012831
     atom    4 type  4   force =    -0.00041223    0.00028073   -0.00025009
     The Hubbard contrib.    to forces
     atom    1 type  3   force =     0.00000000    0.00000000    0.00000000
     atom    2 type  4   force =     0.00000000    0.00000000    0.00000000
     atom    3 type  4   force =     0.00000000    0.00000000    0.00000000
     atom    4 type  4   force =     0.00000000    0.00000000    0.00000000
     The SCF correction term to forces
     atom    1 type  3   force =     0.00000221   -0.00000420    0.00000316
     atom    2 type  4   force =     0.00000727    0.00000115    0.00000472
     atom    3 type  4   force =     0.00000085   -0.00000804    0.00000685
     atom    4 type  4   force =    -0.00000561    0.00000441   -0.00000094

     Dispersion contribution to forces:
     atom    1 type  3   force =     0.00000518   -0.00002025   -0.00003274
     atom    2 type  4   force =     0.00037208    0.00067654   -0.00012977
     atom    3 type  4   force =    -0.00081744   -0.00018195    0.00003578
     atom    4 type  4   force =     0.00044017   -0.00047433    0.00012673

     Total force =     0.005554     Total SCF correction =     0.000017

     Total Dispersion Force =     0.001324


     Computing stress (Cartesian axis) and pressure


     negative rho (up, down):  4.411E-02 0.000E+00
          total   stress  (Ry/bohr**3)                   (kbar)     P=       -0.01
   0.00000033   0.00000030  -0.00000006            0.05        0.04       -0.01
   0.00000030  -0.00000026   0.00000003            0.04       -0.04        0.00
  -0.00000006   0.00000003  -0.00000018           -0.01        0.00       -0.03

     kinetic stress (kbar)    145.70      0.14     -0.17
                                0.14    145.88      1.79
                               -0.17      1.79    152.01

     local   stress (kbar)  -1974.40     -1.92     -9.04
                               -1.92  -2082.23     71.87
                               -9.04     71.87   1396.98

     nonloc. stress (kbar)    136.33      0.02      0.00
                                0.02    136.25     -0.17
                                0.00     -0.17    135.65

     hartree stress (kbar)    937.89      0.95      3.71
                                0.95    990.85    -27.83
                                3.71    -27.83   -707.19

     exc-cor stress (kbar)     43.46     -0.00      0.00
                               -0.00     43.45     -0.04
                                0.00     -0.04     43.33

     corecor stress (kbar)    -90.35     -0.00      0.00
                               -0.00    -90.34      0.02
                                0.00      0.02    -90.26

     ewald   stress (kbar)    801.40      0.85      5.49
                                0.85    856.09    -45.64
                                5.49    -45.64   -930.54

     hubbard stress (kbar)      0.00      0.00      0.00
                                0.00      0.00      0.00
                                0.00      0.00      0.00

     DFT-D   stress (kbar)      0.02      0.00     -0.00
                                0.00      0.01     -0.01
                               -0.00     -0.01      0.00

     XDM     stress (kbar)      0.00      0.00      0.00
                                0.00      0.00      0.00
                                0.00      0.00      0.00

     dft-nl  stress (kbar)      0.00      0.00      0.00
                                0.00      0.00      0.00
                                0.00      0.00      0.00

     TS-vdW  stress (kbar)      0.00      0.00      0.00
                                0.00      0.00      0.00
                                0.00      0.00      0.00


                                0.00      0.00      0.00
                                0.00      0.00      0.00


                                0.00      0.00      0.00

     Energy error            =      2.4E-05 Ry
     Gradient error          =      3.3E-03 Ry/Bohr

     number of scf cycles    =  26
     number of bfgs steps    =  25

     energy             old  =    -111.1474429749 Ry
     energy             new  =    -111.1474665133 Ry

     CASE: energy            _new < energy            _old

     new trust radius        =       0.0778588539 bohr
     new conv_thr            =       0.0000000002 Ry


ATOMIC_POSITIONS (angstrom)
Si            5.0360735537        4.5547000471       20.1350700375
Cl            5.6685013319        6.5067291862       20.3163987964
Cl            3.1052429576        4.4539192143       20.8353619853
Cl            6.2221821568        3.3137015524       21.2744491807



     Writing output data file ./out/aiida.save/
     NEW-OLD atomic charge density approx. for the potential

     negative rho (up, down):  4.427E-02 0.000E+00

     total cpu time spent up to now is      344.3 secs

     Self-consistent Calculation

     iteration #  1     ecut=    60.00 Ry     beta= 0.40
     Davidson diagonalization with overlap

---- Real-time Memory Report at c_bands before calling an iterative solver
           635 MiB given to the printing process from OS
             0 MiB allocation reported by mallinfo(arena+hblkhd)
        324120 MiB available memory on the node where the printing process lives
------------------
     ethr =  1.00E-06,  avg # of iterations = 10.0

     negative rho (up, down):  4.422E-02 0.000E+00

     total cpu time spent up to now is      345.2 secs

     total energy              =    -111.14750266 Ry
     estimated scf accuracy    <       0.00012300 Ry

     iteration #  2     ecut=    60.00 Ry     beta= 0.40
     Davidson diagonalization with overlap

---- Real-time Memory Report at c_bands before calling an iterative solver
           635 MiB given to the printing process from OS
             0 MiB allocation reported by mallinfo(arena+hblkhd)
        324118 MiB available memory on the node where the printing process lives
------------------
     ethr =  4.92E-07,  avg # of iterations =  1.0

     negative rho (up, down):  4.442E-02 0.000E+00

     total cpu time spent up to now is      345.8 secs

     total energy              =    -111.14750377 Ry
     estimated scf accuracy    <       0.00002959 Ry

     iteration #  3     ecut=    60.00 Ry     beta= 0.40
     Davidson diagonalization with overlap

---- Real-time Memory Report at c_bands before calling an iterative solver
           635 MiB given to the printing process from OS
             0 MiB allocation reported by mallinfo(arena+hblkhd)
        324119 MiB available memory on the node where the printing process lives
------------------
     ethr =  1.18E-07,  avg # of iterations =  2.0

     negative rho (up, down):  4.442E-02 0.000E+00

     total cpu time spent up to now is      346.5 secs

     total energy              =    -111.14750568 Ry
     estimated scf accuracy    <       0.00000264 Ry

     iteration #  4     ecut=    60.00 Ry     beta= 0.40
     Davidson diagonalization with overlap

---- Real-time Memory Report at c_bands before calling an iterative solver
           635 MiB given to the printing process from OS
             0 MiB allocation reported by mallinfo(arena+hblkhd)
        324120 MiB available memory on the node where the printing process lives
------------------
     ethr =  1.06E-08,  avg # of iterations =  2.0

     negative rho (up, down):  4.433E-02 0.000E+00

     total cpu time spent up to now is      347.2 secs

     total energy              =    -111.14750586 Ry
     estimated scf accuracy    <       0.00000021 Ry

     iteration #  5     ecut=    60.00 Ry     beta= 0.40
     Davidson diagonalization with overlap

---- Real-time Memory Report at c_bands before calling an iterative solver
           635 MiB given to the printing process from OS
             0 MiB allocation reported by mallinfo(arena+hblkhd)
        324120 MiB available memory on the node where the printing process lives
------------------
     ethr =  8.38E-10,  avg # of iterations =  5.0

     negative rho (up, down):  4.425E-02 0.000E+00

     total cpu time spent up to now is      347.9 secs

     total energy              =    -111.14750591 Ry
     estimated scf accuracy    <       0.00000003 Ry

     iteration #  6     ecut=    60.00 Ry     beta= 0.40
     Davidson diagonalization with overlap

---- Real-time Memory Report at c_bands before calling an iterative solver
           635 MiB given to the printing process from OS
             0 MiB allocation reported by mallinfo(arena+hblkhd)
        324120 MiB available memory on the node where the printing process lives
------------------
     ethr =  1.09E-10,  avg # of iterations =  2.0

     negative rho (up, down):  4.420E-02 0.000E+00

     total cpu time spent up to now is      348.6 secs

     total energy              =    -111.14750593 Ry
     estimated scf accuracy    <          3.1E-09 Ry

     iteration #  7     ecut=    60.00 Ry     beta= 0.40
     Davidson diagonalization with overlap

---- Real-time Memory Report at c_bands before calling an iterative solver
           635 MiB given to the printing process from OS
             0 MiB allocation reported by mallinfo(arena+hblkhd)
        324119 MiB available memory on the node where the printing process lives
------------------
     ethr =  1.25E-11,  avg # of iterations =  5.0

     negative rho (up, down):  4.418E-02 0.000E+00

     total cpu time spent up to now is      349.3 secs

     total energy              =    -111.14750593 Ry
     estimated scf accuracy    <          4.7E-10 Ry

     iteration #  8     ecut=    60.00 Ry     beta= 0.40
     Davidson diagonalization with overlap

---- Real-time Memory Report at c_bands before calling an iterative solver
           635 MiB given to the printing process from OS
             0 MiB allocation reported by mallinfo(arena+hblkhd)
        324118 MiB available memory on the node where the printing process lives
------------------
     ethr =  1.87E-12,  avg # of iterations =  3.0

     negative rho (up, down):  4.417E-02 0.000E+00

     total cpu time spent up to now is      350.0 secs

     End of self-consistent calculation

          k = 0.0000 0.0000 0.0000 ( 95217 PWs)   bands (ev):

   -21.6086 -20.7924 -20.7677 -13.1304 -10.5164 -10.4875  -9.3661  -8.6949
    -8.6666  -8.1778  -8.1484  -7.8031  -5.1547  -1.1274  -0.6226  -0.4893
    -0.3990

     occupation numbers 
     1.0000   1.0000   1.0000   1.0000   1.0000   1.0000   1.0000   1.0000
     1.0000   1.0000   1.0000   1.0000   0.5000   0.0000   0.0000   0.0000
     0.0000

     the Fermi energy is    -5.1269 ev

!    total energy              =    -111.14750596 Ry
     estimated scf accuracy    <          1.5E-10 Ry
     smearing contrib. (-TS)   =      -0.00482420 Ry
     internal energy E=F+TS    =    -111.14268176 Ry

     The total energy is F=E-TS. E is the sum of the following terms:
     one-electron contribution =    -398.54303490 Ry
     hartree contribution      =     201.47275832 Ry
     xc contribution           =     -33.93423851 Ry
     ewald contribution        =     119.86599727 Ry
     Dispersion Correction     =      -0.00416394 Ry
     one-center paw contrib.   =       0.00000000 Ry
      -> PAW hartree energy AE =       0.00000000 Ry
      -> PAW hartree energy PS =       0.00000000 Ry
      -> PAW xc energy AE      =       0.00000000 Ry
      -> PAW xc energy PS      =       0.00000000 Ry
      -> total E_H with PAW    =     201.47275832 Ry
      -> total E_XC with PAW   =     -33.93423851 Ry

     convergence has been achieved in   8 iterations

     negative rho (up, down):  4.417E-02 0.000E+00

     Forces acting on atoms (cartesian axes, Ry/au):

     atom    1 type  3   force =    -0.00048565    0.00151593    0.00257509
     atom    2 type  4   force =     0.00205612   -0.00149724   -0.00103904
     atom    3 type  4   force =    -0.00200005   -0.00167743   -0.00063552
     atom    4 type  4   force =     0.00042958    0.00165875   -0.00090053
     The non-local contrib.  to forces
     atom    1 type  3   force =    -0.00279944    0.04323166    0.14771331
     atom    2 type  4   force =    -0.05780794   -0.19964626   -0.01588657
     atom    3 type  4   force =     0.19301926    0.00723374   -0.07123739
     atom    4 type  4   force =    -0.11769052    0.12929643   -0.11434610
     The ionic contribution  to forces
     atom    1 type  3   force =     0.18254767   -0.99868694   -3.88582705
     atom    2 type  4   force =     2.37227395    5.97635765   -1.13464034
     atom    3 type  4   force =    -6.86157936   -0.68781801    1.43774950
     atom    4 type  4   force =     4.30675774   -4.28985270    3.58271789
     The local contribution  to forces
     atom    1 type  3   force =    -0.17999008    0.95961529    3.74992837
     atom    2 type  4   force =    -2.31239052   -5.77837626    1.14967069
     atom    3 type  4   force =     6.66663690    0.67894405   -1.36705401
     atom    4 type  4   force =    -4.18862946    4.16238250   -3.46910031
     The core correction contribution to forces
     atom    1 type  3   force =    -0.00025034   -0.00261556   -0.00920832
     atom    2 type  4   force =    -0.00040949   -0.00049664   -0.00005376
     atom    3 type  4   force =     0.00075706    0.00016614   -0.00013687
     atom    4 type  4   force =    -0.00044238    0.00027564   -0.00028510
     The Hubbard contrib.    to forces
     atom    1 type  3   force =     0.00000000    0.00000000    0.00000000
     atom    2 type  4   force =     0.00000000    0.00000000    0.00000000
     atom    3 type  4   force =     0.00000000    0.00000000    0.00000000
     atom    4 type  4   force =     0.00000000    0.00000000    0.00000000
     The SCF correction term to forces
     atom    1 type  3   force =     0.00000283   -0.00000608    0.00000139
     atom    2 type  4   force =     0.00000833    0.00000294    0.00000852
     atom    3 type  4   force =     0.00000079   -0.00000726    0.00000328
     atom    4 type  4   force =    -0.00000797    0.00000321   -0.00001658

     Dispersion contribution to forces:
     atom    1 type  3   force =     0.00000546   -0.00002155   -0.00003247
     atom    2 type  4   force =     0.00038355    0.00066219   -0.00013745
     atom    3 type  4   force =    -0.00083294   -0.00019520    0.00004011
     atom    4 type  4   force =     0.00044393   -0.00044545    0.00012981

     Total force =     0.005261     Total SCF correction =     0.000025

     Total Dispersion Force =     0.001324


     Computing stress (Cartesian axis) and pressure


     negative rho (up, down):  4.417E-02 0.000E+00
          total   stress  (Ry/bohr**3)                   (kbar)     P=        0.00
   0.00000043   0.00000034  -0.00000004            0.06        0.05       -0.01
   0.00000034  -0.00000027   0.00000003            0.05       -0.04        0.01
  -0.00000004   0.00000003  -0.00000014           -0.01        0.01       -0.02

     kinetic stress (kbar)    145.73      0.17     -0.19
                                0.17    145.92      1.94
                               -0.19      1.94    151.96

     local   stress (kbar)  -1973.08     -2.05    -10.02
                               -2.05  -2076.92     77.26
                              -10.02     77.26   1391.39

     nonloc. stress (kbar)    136.33      0.02      0.00
                                0.02    136.24     -0.18
                                0.00     -0.18    135.66

     hartree stress (kbar)    937.26      1.02      4.10
                                1.02    988.52    -29.91
                                4.10    -29.91   -704.76

     exc-cor stress (kbar)     43.46     -0.00      0.00
                               -0.00     43.45     -0.04
                                0.00     -0.04     43.33

     corecor stress (kbar)    -90.35     -0.00     -0.00
                               -0.00    -90.34      0.02
                               -0.00      0.02    -90.26

     ewald   stress (kbar)    800.69      0.89      6.09
                                0.89    853.08    -49.08
                                6.09    -49.08   -927.33

     hubbard stress (kbar)      0.00      0.00      0.00
                                0.00      0.00      0.00
                                0.00      0.00      0.00

     DFT-D   stress (kbar)      0.02      0.00     -0.00
                                0.00      0.01     -0.01
                               -0.00     -0.01      0.00

     XDM     stress (kbar)      0.00      0.00      0.00
                                0.00      0.00      0.00
                                0.00      0.00      0.00

     dft-nl  stress (kbar)      0.00      0.00      0.00
                                0.00      0.00      0.00
                                0.00      0.00      0.00

     TS-vdW  stress (kbar)      0.00      0.00      0.00
                                0.00      0.00      0.00
                                0.00      0.00      0.00


                                0.00      0.00      0.00
                                0.00      0.00      0.00


                                0.00      0.00      0.00

     Energy error            =      3.9E-05 Ry
     Gradient error          =      2.6E-03 Ry/Bohr

     number of scf cycles    =  27
     number of bfgs steps    =  26

     energy             old  =    -111.1474665133 Ry
     energy             new  =    -111.1475059618 Ry

     CASE: energy            _new < energy            _old

     new trust radius        =       0.0856447393 bohr
     new conv_thr            =       0.0000000002 Ry


ATOMIC_POSITIONS (angstrom)
Si            5.0401232710        4.5443222013       20.1423809769
Cl            5.6531400348        6.5055223470       20.2737773315
Cl            3.1070817015        4.4432187078       20.8367052412
Cl            6.2316549926        3.3359867439       21.3084164504



     Writing output data file ./out/aiida.save/
     NEW-OLD atomic charge density approx. for the potential

     negative rho (up, down):  4.451E-02 0.000E+00

     total cpu time spent up to now is      357.8 secs

     Self-consistent Calculation

     iteration #  1     ecut=    60.00 Ry     beta= 0.40
     Davidson diagonalization with overlap

---- Real-time Memory Report at c_bands before calling an iterative solver
           635 MiB given to the printing process from OS
             0 MiB allocation reported by mallinfo(arena+hblkhd)
        324129 MiB available memory on the node where the printing process lives
------------------
     ethr =  1.00E-06,  avg # of iterations = 10.0

     negative rho (up, down):  4.445E-02 0.000E+00

     total cpu time spent up to now is      358.6 secs

     total energy              =    -111.14756268 Ry
     estimated scf accuracy    <       0.00014958 Ry

     iteration #  2     ecut=    60.00 Ry     beta= 0.40
     Davidson diagonalization with overlap

---- Real-time Memory Report at c_bands before calling an iterative solver
           635 MiB given to the printing process from OS
             0 MiB allocation reported by mallinfo(arena+hblkhd)
        324118 MiB available memory on the node where the printing process lives
------------------
     ethr =  5.98E-07,  avg # of iterations =  1.0

     negative rho (up, down):  4.466E-02 0.000E+00

     total cpu time spent up to now is      359.3 secs

     total energy              =    -111.14756448 Ry
     estimated scf accuracy    <       0.00003570 Ry

     iteration #  3     ecut=    60.00 Ry     beta= 0.40
     Davidson diagonalization with overlap

---- Real-time Memory Report at c_bands before calling an iterative solver
           635 MiB given to the printing process from OS
             0 MiB allocation reported by mallinfo(arena+hblkhd)
        324118 MiB available memory on the node where the printing process lives
------------------
     ethr =  1.43E-07,  avg # of iterations =  1.0

     negative rho (up, down):  4.466E-02 0.000E+00

     total cpu time spent up to now is      360.0 secs

     total energy              =    -111.14756671 Ry
     estimated scf accuracy    <       0.00000333 Ry

     iteration #  4     ecut=    60.00 Ry     beta= 0.40
     Davidson diagonalization with overlap

---- Real-time Memory Report at c_bands before calling an iterative solver
           635 MiB given to the printing process from OS
             0 MiB allocation reported by mallinfo(arena+hblkhd)
        324118 MiB available memory on the node where the printing process lives
------------------
     ethr =  1.33E-08,  avg # of iterations =  2.0

     negative rho (up, down):  4.456E-02 0.000E+00

     total cpu time spent up to now is      360.6 secs

     total energy              =    -111.14756703 Ry
     estimated scf accuracy    <       0.00000030 Ry

     iteration #  5     ecut=    60.00 Ry     beta= 0.40
     Davidson diagonalization with overlap

---- Real-time Memory Report at c_bands before calling an iterative solver
           635 MiB given to the printing process from OS
             0 MiB allocation reported by mallinfo(arena+hblkhd)
        324117 MiB available memory on the node where the printing process lives
------------------
     ethr =  1.18E-09,  avg # of iterations =  4.0

     negative rho (up, down):  4.447E-02 0.000E+00

     total cpu time spent up to now is      361.3 secs

     total energy              =    -111.14756712 Ry
     estimated scf accuracy    <       0.00000003 Ry

     iteration #  6     ecut=    60.00 Ry     beta= 0.40
     Davidson diagonalization with overlap

---- Real-time Memory Report at c_bands before calling an iterative solver
           635 MiB given to the printing process from OS
             0 MiB allocation reported by mallinfo(arena+hblkhd)
        324117 MiB available memory on the node where the printing process lives
------------------
     ethr =  1.39E-10,  avg # of iterations =  2.0

     negative rho (up, down):  4.442E-02 0.000E+00

     total cpu time spent up to now is      362.0 secs

     total energy              =    -111.14756713 Ry
     estimated scf accuracy    <          5.0E-09 Ry

     iteration #  7     ecut=    60.00 Ry     beta= 0.40
     Davidson diagonalization with overlap

---- Real-time Memory Report at c_bands before calling an iterative solver
           635 MiB given to the printing process from OS
             0 MiB allocation reported by mallinfo(arena+hblkhd)
        324117 MiB available memory on the node where the printing process lives
------------------
     ethr =  2.02E-11,  avg # of iterations =  4.0

     negative rho (up, down):  4.439E-02 0.000E+00

     total cpu time spent up to now is      362.7 secs

     total energy              =    -111.14756714 Ry
     estimated scf accuracy    <          6.7E-10 Ry

     iteration #  8     ecut=    60.00 Ry     beta= 0.40
     Davidson diagonalization with overlap

---- Real-time Memory Report at c_bands before calling an iterative solver
           635 MiB given to the printing process from OS
             0 MiB allocation reported by mallinfo(arena+hblkhd)
        324116 MiB available memory on the node where the printing process lives
------------------
     ethr =  2.67E-12,  avg # of iterations =  3.0

     negative rho (up, down):  4.438E-02 0.000E+00

     total cpu time spent up to now is      363.4 secs

     End of self-consistent calculation

          k = 0.0000 0.0000 0.0000 ( 95217 PWs)   bands (ev):

   -21.6131 -20.8025 -20.7688 -13.1326 -10.5252 -10.4887  -9.3684  -8.6989
    -8.6694  -8.1887  -8.1521  -7.8079  -5.1389  -1.1355  -0.6165  -0.4736
    -0.3986

     occupation numbers 
     1.0000   1.0000   1.0000   1.0000   1.0000   1.0000   1.0000   1.0000
     1.0000   1.0000   1.0000   1.0000   0.5000   0.0000   0.0000   0.0000
     0.0000

     the Fermi energy is    -5.1110 ev

!    total energy              =    -111.14756717 Ry
     estimated scf accuracy    <          1.4E-10 Ry
     smearing contrib. (-TS)   =      -0.00482420 Ry
     internal energy E=F+TS    =    -111.14274297 Ry

     The total energy is F=E-TS. E is the sum of the following terms:
     one-electron contribution =    -398.30736814 Ry
     hartree contribution      =     201.35193848 Ry
     xc contribution           =     -33.93515348 Ry
     ewald contribution        =     119.75200232 Ry
     Dispersion Correction     =      -0.00416215 Ry
     one-center paw contrib.   =       0.00000000 Ry
      -> PAW hartree energy AE =       0.00000000 Ry
      -> PAW hartree energy PS =       0.00000000 Ry
      -> PAW xc energy AE      =       0.00000000 Ry
      -> PAW xc energy PS      =       0.00000000 Ry
      -> total E_H with PAW    =     201.35193848 Ry
      -> total E_XC with PAW   =     -33.93515348 Ry

     convergence has been achieved in   8 iterations

     negative rho (up, down):  4.438E-02 0.000E+00

     Forces acting on atoms (cartesian axes, Ry/au):

     atom    1 type  3   force =    -0.00144767    0.00113470    0.00109283
     atom    2 type  4   force =     0.00243573   -0.00107663   -0.00051130
     atom    3 type  4   force =    -0.00187309   -0.00165136   -0.00035231
     atom    4 type  4   force =     0.00088504    0.00159329   -0.00022921
     The non-local contrib.  to forces
     atom    1 type  3   force =    -0.00387324    0.04690232    0.14732707
     atom    2 type  4   force =    -0.05534760   -0.20009560   -0.00978602
     atom    3 type  4   force =     0.19356490    0.00737595   -0.07001343
     atom    4 type  4   force =    -0.11775172    0.12640531   -0.11599766
     The ionic contribution  to forces
     atom    1 type  3   force =     0.20492106   -1.06798482   -3.83301485
     atom    2 type  4   force =     2.31695479    5.99014575   -1.34542174
     atom    3 type  4   force =    -6.85790271   -0.71257097    1.43818300
     atom    4 type  4   force =     4.33602686   -4.20958996    3.74025358
     The local contribution  to forces
     atom    1 type  3   force =    -0.20234514    1.02512402    3.69607179
     atom    2 type  4   force =    -2.25913441   -5.79123811    1.35491246
     atom    3 type  4   force =     6.66255217    0.70358766   -1.36841387
     atom    4 type  4   force =    -4.21734286    4.08491708   -3.62425505
     The core correction contribution to forces
     atom    1 type  3   force =    -0.00015663   -0.00287808   -0.00925875
     atom    2 type  4   force =    -0.00042660   -0.00053490   -0.00007338
     atom    3 type  4   force =     0.00074434    0.00016526   -0.00015296
     atom    4 type  4   force =    -0.00048027    0.00027635   -0.00034662
     The Hubbard contrib.    to forces
     atom    1 type  3   force =     0.00000000    0.00000000    0.00000000
     atom    2 type  4   force =     0.00000000    0.00000000    0.00000000
     atom    3 type  4   force =     0.00000000    0.00000000    0.00000000
     atom    4 type  4   force =     0.00000000    0.00000000    0.00000000
     The SCF correction term to forces
     atom    1 type  3   force =     0.00000151   -0.00000538   -0.00000105
     atom    2 type  4   force =     0.00000720    0.00000910   -0.00000029
     atom    3 type  4   force =    -0.00000116   -0.00000631    0.00000078
     atom    4 type  4   force =    -0.00000622   -0.00000251   -0.00001558

     Dispersion contribution to forces:
     atom    1 type  3   force =     0.00000584   -0.00002281   -0.00003202
     atom    2 type  4   force =     0.00038341    0.00063766   -0.00014297
     atom    3 type  4   force =    -0.00082956   -0.00020240    0.00004353
     atom    4 type  4   force =     0.00044031   -0.00041245    0.00013147

     Total force =     0.004655     Total SCF correction =     0.000022

     Total Dispersion Force =     0.001299


     Computing stress (Cartesian axis) and pressure


     negative rho (up, down):  4.438E-02 0.000E+00
          total   stress  (Ry/bohr**3)                   (kbar)     P=        0.01
   0.00000047   0.00000035   0.00000000            0.07        0.05        0.00
   0.00000035  -0.00000023   0.00000004            0.05       -0.03        0.01
   0.00000000   0.00000004  -0.00000005            0.00        0.01       -0.01

     kinetic stress (kbar)    145.74      0.17     -0.22
                                0.17    145.97      2.12
                               -0.22      2.12    151.93

     local   stress (kbar)  -1971.81     -2.36    -11.22
                               -2.36  -2070.46     83.13
                              -11.22     83.13   1385.09

     nonloc. stress (kbar)    136.33      0.02      0.01
                                0.02    136.23     -0.19
                                0.01     -0.19    135.68

     hartree stress (kbar)    936.62      1.16      4.57
                                1.16    985.67    -32.16
                                4.57    -32.16   -702.01

     exc-cor stress (kbar)     43.45     -0.00      0.00
                               -0.00     43.45     -0.04
                                0.00     -0.04     43.33

     corecor stress (kbar)    -90.35     -0.00     -0.00
                               -0.00    -90.34      0.03
                               -0.00      0.03    -90.26

     ewald   stress (kbar)    800.06      1.05      6.86
                                1.05    849.45    -52.87
                                6.86    -52.87   -923.76

     hubbard stress (kbar)      0.00      0.00      0.00
                                0.00      0.00      0.00
                                0.00      0.00      0.00

     DFT-D   stress (kbar)      0.02      0.00     -0.00
                                0.00      0.01     -0.01
                               -0.00     -0.01      0.00

     XDM     stress (kbar)      0.00      0.00      0.00
                                0.00      0.00      0.00
                                0.00      0.00      0.00

     dft-nl  stress (kbar)      0.00      0.00      0.00
                                0.00      0.00      0.00
                                0.00      0.00      0.00

     TS-vdW  stress (kbar)      0.00      0.00      0.00
                                0.00      0.00      0.00
                                0.00      0.00      0.00


                                0.00      0.00      0.00
                                0.00      0.00      0.00


                                0.00      0.00      0.00

     Energy error            =      6.1E-05 Ry
     Gradient error          =      2.4E-03 Ry/Bohr

     number of scf cycles    =  28
     number of bfgs steps    =  27

     energy             old  =    -111.1475059618 Ry
     energy             new  =    -111.1475671679 Ry

     CASE: energy            _new < energy            _old

     new trust radius        =       0.1284671089 bohr
     new conv_thr            =       0.0000000002 Ry


ATOMIC_POSITIONS (angstrom)
Si            5.0450797034        4.5292302410       20.1536365843
Cl            5.6317268694        6.5033570620       20.2092922786
Cl            3.1084117734        4.4260086327       20.8386213380
Cl            6.2467816538        3.3704540642       21.3597297990



     Writing output data file ./out/aiida.save/
     NEW-OLD atomic charge density approx. for the potential

     negative rho (up, down):  4.438E-02 0.000E+00

     total cpu time spent up to now is      371.2 secs

     Self-consistent Calculation

     iteration #  1     ecut=    60.00 Ry     beta= 0.40
     Davidson diagonalization with overlap

---- Real-time Memory Report at c_bands before calling an iterative solver
           636 MiB given to the printing process from OS
             0 MiB allocation reported by mallinfo(arena+hblkhd)
        324124 MiB available memory on the node where the printing process lives
------------------
     ethr =  1.00E-06,  avg # of iterations = 12.0

     negative rho (up, down):  4.427E-02 0.000E+00

     total cpu time spent up to now is      372.1 secs

     total energy              =    -111.14763432 Ry
     estimated scf accuracy    <       0.00033252 Ry

     iteration #  2     ecut=    60.00 Ry     beta= 0.40
     Davidson diagonalization with overlap

---- Real-time Memory Report at c_bands before calling an iterative solver
           636 MiB given to the printing process from OS
             0 MiB allocation reported by mallinfo(arena+hblkhd)
        324109 MiB available memory on the node where the printing process lives
------------------
     ethr =  1.33E-06,  avg # of iterations =  1.0

     negative rho (up, down):  4.460E-02 0.000E+00

     total cpu time spent up to now is      372.8 secs

     total energy              =    -111.14763534 Ry
     estimated scf accuracy    <       0.00008057 Ry

     iteration #  3     ecut=    60.00 Ry     beta= 0.40
     Davidson diagonalization with overlap

---- Real-time Memory Report at c_bands before calling an iterative solver
           636 MiB given to the printing process from OS
             0 MiB allocation reported by mallinfo(arena+hblkhd)
        324108 MiB available memory on the node where the printing process lives
------------------
     ethr =  3.22E-07,  avg # of iterations =  1.0

     negative rho (up, down):  4.458E-02 0.000E+00

     total cpu time spent up to now is      373.4 secs

     total energy              =    -111.14763992 Ry
     estimated scf accuracy    <       0.00000705 Ry

     iteration #  4     ecut=    60.00 Ry     beta= 0.40
     Davidson diagonalization with overlap

---- Real-time Memory Report at c_bands before calling an iterative solver
           636 MiB given to the printing process from OS
             0 MiB allocation reported by mallinfo(arena+hblkhd)
        324109 MiB available memory on the node where the printing process lives
------------------
     ethr =  2.82E-08,  avg # of iterations =  2.0

     negative rho (up, down):  4.443E-02 0.000E+00

     total cpu time spent up to now is      374.1 secs

     total energy              =    -111.14764041 Ry
     estimated scf accuracy    <       0.00000060 Ry

     iteration #  5     ecut=    60.00 Ry     beta= 0.40
     Davidson diagonalization with overlap

---- Real-time Memory Report at c_bands before calling an iterative solver
           636 MiB given to the printing process from OS
             0 MiB allocation reported by mallinfo(arena+hblkhd)
        324109 MiB available memory on the node where the printing process lives
------------------
     ethr =  2.39E-09,  avg # of iterations =  5.0

     negative rho (up, down):  4.429E-02 0.000E+00

     total cpu time spent up to now is      374.8 secs

     total energy              =    -111.14764053 Ry
     estimated scf accuracy    <       0.00000008 Ry

     iteration #  6     ecut=    60.00 Ry     beta= 0.40
     Davidson diagonalization with overlap

---- Real-time Memory Report at c_bands before calling an iterative solver
           636 MiB given to the printing process from OS
             0 MiB allocation reported by mallinfo(arena+hblkhd)
        324109 MiB available memory on the node where the printing process lives
------------------
     ethr =  3.07E-10,  avg # of iterations =  2.0

     negative rho (up, down):  4.421E-02 0.000E+00

     total cpu time spent up to now is      375.5 secs

     total energy              =    -111.14764055 Ry
     estimated scf accuracy    <       0.00000001 Ry

     iteration #  7     ecut=    60.00 Ry     beta= 0.40
     Davidson diagonalization with overlap

---- Real-time Memory Report at c_bands before calling an iterative solver
           636 MiB given to the printing process from OS
             0 MiB allocation reported by mallinfo(arena+hblkhd)
        324109 MiB available memory on the node where the printing process lives
------------------
     ethr =  4.29E-11,  avg # of iterations =  2.0

     negative rho (up, down):  4.417E-02 0.000E+00

     total cpu time spent up to now is      376.2 secs

     total energy              =    -111.14764058 Ry
     estimated scf accuracy    <          7.1E-10 Ry

     iteration #  8     ecut=    60.00 Ry     beta= 0.40
     Davidson diagonalization with overlap

---- Real-time Memory Report at c_bands before calling an iterative solver
           636 MiB given to the printing process from OS
             0 MiB allocation reported by mallinfo(arena+hblkhd)
        324108 MiB available memory on the node where the printing process lives
------------------
     ethr =  2.83E-12,  avg # of iterations =  5.0

     negative rho (up, down):  4.415E-02 0.000E+00

     total cpu time spent up to now is      376.9 secs

     total energy              =    -111.14764061 Ry
     estimated scf accuracy    <          2.1E-10 Ry

     iteration #  9     ecut=    60.00 Ry     beta= 0.40
     Davidson diagonalization with overlap

---- Real-time Memory Report at c_bands before calling an iterative solver
           636 MiB given to the printing process from OS
             0 MiB allocation reported by mallinfo(arena+hblkhd)
        324108 MiB available memory on the node where the printing process lives
------------------
     ethr =  8.58E-13,  avg # of iterations =  2.0

     negative rho (up, down):  4.413E-02 0.000E+00

     total cpu time spent up to now is      377.6 secs

     End of self-consistent calculation

          k = 0.0000 0.0000 0.0000 ( 95217 PWs)   bands (ev):

   -21.6113 -20.8088 -20.7714 -13.1347 -10.5310 -10.4896  -9.3658  -8.7015
    -8.6692  -8.2006  -8.1593  -7.8155  -5.1234  -1.1633  -0.6107  -0.4632
    -0.3997

     occupation numbers 
     1.0000   1.0000   1.0000   1.0000   1.0000   1.0000   1.0000   1.0000
     1.0000   1.0000   1.0000   1.0000   0.5000   0.0000   0.0000   0.0000
     0.0000

     the Fermi energy is    -5.0956 ev

!    total energy              =    -111.14764065 Ry
     estimated scf accuracy    <          2.2E-11 Ry
     smearing contrib. (-TS)   =      -0.00482420 Ry
     internal energy E=F+TS    =    -111.14281646 Ry

     The total energy is F=E-TS. E is the sum of the following terms:
     one-electron contribution =    -397.78347510 Ry
     hartree contribution      =     201.08619189 Ry
     xc contribution           =     -33.93322970 Ry
     ewald contribution        =     119.49186309 Ry
     Dispersion Correction     =      -0.00416664 Ry
     one-center paw contrib.   =       0.00000000 Ry
      -> PAW hartree energy AE =       0.00000000 Ry
      -> PAW hartree energy PS =       0.00000000 Ry
      -> PAW xc energy AE      =       0.00000000 Ry
      -> PAW xc energy PS      =       0.00000000 Ry
      -> total E_H with PAW    =     201.08619189 Ry
      -> total E_XC with PAW   =     -33.93322970 Ry

     convergence has been achieved in   9 iterations

     negative rho (up, down):  4.413E-02 0.000E+00

     Forces acting on atoms (cartesian axes, Ry/au):

     atom    1 type  3   force =    -0.00159566    0.00097184   -0.00015910
     atom    2 type  4   force =     0.00233341   -0.00196674    0.00025525
     atom    3 type  4   force =    -0.00128602   -0.00144353    0.00002206
     atom    4 type  4   force =     0.00054826    0.00243843   -0.00011821
     The non-local contrib.  to forces
     atom    1 type  3   force =    -0.00486094    0.05302365    0.14762833
     atom    2 type  4   force =    -0.05275592   -0.20191333   -0.00056345
     atom    3 type  4   force =     0.19472868    0.00806413   -0.06807093
     atom    4 type  4   force =    -0.11906761    0.12282537   -0.11926564
     The ionic contribution  to forces
     atom    1 type  3   force =     0.24143900   -1.16353957   -3.74244724
     atom    2 type  4   force =     2.23129085    5.98548716   -1.65984644
     atom    3 type  4   force =    -6.84169442   -0.75051422    1.43679590
     atom    4 type  4   force =     4.36896457   -4.07143336    3.96549778
     The local contribution  to forces
     atom    1 type  3   force =    -0.23804519    1.11489833    3.60418870
     atom    2 type  4   force =    -2.17616376   -5.78562651    1.66091200
     atom    3 type  4   force =     6.64576677    0.74105906   -1.36857010
     atom    4 type  4   force =    -4.24929868    3.95118036   -3.84610297
     The core correction contribution to forces
     atom    1 type  3   force =    -0.00013339   -0.00338821   -0.00949658
     atom    2 type  4   force =    -0.00040717   -0.00048795   -0.00009931
     atom    3 type  4   force =     0.00070917    0.00015404   -0.00017870
     atom    4 type  4   force =    -0.00046790    0.00021100   -0.00037793
     The Hubbard contrib.    to forces
     atom    1 type  3   force =     0.00000000    0.00000000    0.00000000
     atom    2 type  4   force =     0.00000000    0.00000000    0.00000000
     atom    3 type  4   force =     0.00000000    0.00000000    0.00000000
     atom    4 type  4   force =     0.00000000    0.00000000    0.00000000
     The SCF correction term to forces
     atom    1 type  3   force =    -0.00000038    0.00000173   -0.00000119
     atom    2 type  4   force =     0.00000018   -0.00000164   -0.00000748
     atom    3 type  4   force =    -0.00000118   -0.00000282   -0.00000144
     atom    4 type  4   force =     0.00000078    0.00000027    0.00000512

     Dispersion contribution to forces:
     atom    1 type  3   force =     0.00000611   -0.00002472   -0.00003152
     atom    2 type  4   force =     0.00037010    0.00057491   -0.00014047
     atom    3 type  4   force =    -0.00079417   -0.00020436    0.00004695
     atom    4 type  4   force =     0.00041797   -0.00034583    0.00012504

     Total force =     0.004785     Total SCF correction =     0.000010

     Total Dispersion Force =     0.001214


     Computing stress (Cartesian axis) and pressure


     negative rho (up, down):  4.413E-02 0.000E+00
          total   stress  (Ry/bohr**3)                   (kbar)     P=       -0.01
   0.00000034   0.00000036  -0.00000001            0.05        0.05       -0.00
   0.00000036  -0.00000050   0.00000014            0.05       -0.07        0.02
  -0.00000001   0.00000014  -0.00000002           -0.00        0.02       -0.00

     kinetic stress (kbar)    145.70      0.17     -0.28
                                0.17    146.04      2.38
                               -0.28      2.38    151.83

     local   stress (kbar)  -1969.56     -3.08    -13.20
                               -3.08  -2059.32     91.59
                              -13.20     91.59   1374.90

     nonloc. stress (kbar)    136.33      0.03      0.01
                                0.03    136.20     -0.21
                                0.01     -0.21    135.70

     hartree stress (kbar)    935.47      1.45      5.36
                                1.45    980.80    -35.41
                                5.36    -35.41   -697.60

     exc-cor stress (kbar)     43.46     -0.00      0.00
                               -0.00     43.45     -0.05
                                0.00     -0.05     43.33

     corecor stress (kbar)    -90.35     -0.00     -0.00
                               -0.00    -90.34      0.03
                               -0.00      0.03    -90.27

     ewald   stress (kbar)    798.98      1.48      8.10
                                1.48    843.09    -58.31
                                8.10    -58.31   -917.90

     hubbard stress (kbar)      0.00      0.00      0.00
                                0.00      0.00      0.00
                                0.00      0.00      0.00

     DFT-D   stress (kbar)      0.02      0.00     -0.00
                                0.00      0.01     -0.01
                               -0.00     -0.01      0.00

     XDM     stress (kbar)      0.00      0.00      0.00
                                0.00      0.00      0.00
                                0.00      0.00      0.00

     dft-nl  stress (kbar)      0.00      0.00      0.00
                                0.00      0.00      0.00
                                0.00      0.00      0.00

     TS-vdW  stress (kbar)      0.00      0.00      0.00
                                0.00      0.00      0.00
                                0.00      0.00      0.00


                                0.00      0.00      0.00
                                0.00      0.00      0.00


                                0.00      0.00      0.00

     Energy error            =      7.3E-05 Ry
     Gradient error          =      2.4E-03 Ry/Bohr

     number of scf cycles    =  29
     number of bfgs steps    =  28

     energy             old  =    -111.1475671679 Ry
     energy             new  =    -111.1476406549 Ry

     CASE: energy            _new < energy            _old

     new trust radius        =       0.0756295299 bohr
     new conv_thr            =       0.0000000002 Ry


ATOMIC_POSITIONS (angstrom)
Si            5.0460958637        4.5249386120       20.1675533376
Cl            5.6255384029        6.4958754166       20.1704664854
Cl            3.1045695951        4.4115487199       20.8378201022
Cl            6.2557961383        3.3966872514       21.3854400747



     Writing output data file ./out/aiida.save/
     NEW-OLD atomic charge density approx. for the potential

     negative rho (up, down):  4.447E-02 0.000E+00

     total cpu time spent up to now is      385.4 secs

     Self-consistent Calculation

     iteration #  1     ecut=    60.00 Ry     beta= 0.40
     Davidson diagonalization with overlap

---- Real-time Memory Report at c_bands before calling an iterative solver
           637 MiB given to the printing process from OS
             0 MiB allocation reported by mallinfo(arena+hblkhd)
        324112 MiB available memory on the node where the printing process lives
------------------
     ethr =  1.00E-06,  avg # of iterations = 10.0

     negative rho (up, down):  4.442E-02 0.000E+00

     total cpu time spent up to now is      386.2 secs

     total energy              =    -111.14767579 Ry
     estimated scf accuracy    <       0.00017356 Ry

     iteration #  2     ecut=    60.00 Ry     beta= 0.40
     Davidson diagonalization with overlap

---- Real-time Memory Report at c_bands before calling an iterative solver
           637 MiB given to the printing process from OS
             0 MiB allocation reported by mallinfo(arena+hblkhd)
        324102 MiB available memory on the node where the printing process lives
------------------
     ethr =  6.94E-07,  avg # of iterations =  2.0

     negative rho (up, down):  4.445E-02 0.000E+00

     total cpu time spent up to now is      386.9 secs

     total energy              =    -111.14768514 Ry
     estimated scf accuracy    <       0.00003519 Ry

     iteration #  3     ecut=    60.00 Ry     beta= 0.40
     Davidson diagonalization with overlap

---- Real-time Memory Report at c_bands before calling an iterative solver
           637 MiB given to the printing process from OS
             0 MiB allocation reported by mallinfo(arena+hblkhd)
        324102 MiB available memory on the node where the printing process lives
------------------
     ethr =  1.41E-07,  avg # of iterations =  1.0

     negative rho (up, down):  4.457E-02 0.000E+00

     total cpu time spent up to now is      387.6 secs

     total energy              =    -111.14768673 Ry
     estimated scf accuracy    <       0.00000634 Ry

     iteration #  4     ecut=    60.00 Ry     beta= 0.40
     Davidson diagonalization with overlap

---- Real-time Memory Report at c_bands before calling an iterative solver
           637 MiB given to the printing process from OS
             0 MiB allocation reported by mallinfo(arena+hblkhd)
        324103 MiB available memory on the node where the printing process lives
------------------
     ethr =  2.54E-08,  avg # of iterations =  2.0

     negative rho (up, down):  4.450E-02 0.000E+00

     total cpu time spent up to now is      388.2 secs

     total energy              =    -111.14768736 Ry
     estimated scf accuracy    <       0.00000041 Ry

     iteration #  5     ecut=    60.00 Ry     beta= 0.40
     Davidson diagonalization with overlap

---- Real-time Memory Report at c_bands before calling an iterative solver
           637 MiB given to the printing process from OS
             0 MiB allocation reported by mallinfo(arena+hblkhd)
        324103 MiB available memory on the node where the printing process lives
------------------
     ethr =  1.66E-09,  avg # of iterations =  4.0

     negative rho (up, down):  4.443E-02 0.000E+00

     total cpu time spent up to now is      388.9 secs

     total energy              =    -111.14768742 Ry
     estimated scf accuracy    <       0.00000004 Ry

     iteration #  6     ecut=    60.00 Ry     beta= 0.40
     Davidson diagonalization with overlap

---- Real-time Memory Report at c_bands before calling an iterative solver
           637 MiB given to the printing process from OS
             0 MiB allocation reported by mallinfo(arena+hblkhd)
        324102 MiB available memory on the node where the printing process lives
------------------
     ethr =  1.64E-10,  avg # of iterations =  2.0

     negative rho (up, down):  4.439E-02 0.000E+00

     total cpu time spent up to now is      389.6 secs

     total energy              =    -111.14768743 Ry
     estimated scf accuracy    <          7.1E-09 Ry

     iteration #  7     ecut=    60.00 Ry     beta= 0.40
     Davidson diagonalization with overlap

---- Real-time Memory Report at c_bands before calling an iterative solver
           637 MiB given to the printing process from OS
             0 MiB allocation reported by mallinfo(arena+hblkhd)
        324102 MiB available memory on the node where the printing process lives
------------------
     ethr =  2.84E-11,  avg # of iterations =  2.0

     negative rho (up, down):  4.437E-02 0.000E+00

     total cpu time spent up to now is      390.3 secs

     total energy              =    -111.14768743 Ry
     estimated scf accuracy    <          7.3E-10 Ry

     iteration #  8     ecut=    60.00 Ry     beta= 0.40
     Davidson diagonalization with overlap

---- Real-time Memory Report at c_bands before calling an iterative solver
           637 MiB given to the printing process from OS
             0 MiB allocation reported by mallinfo(arena+hblkhd)
        324102 MiB available memory on the node where the printing process lives
------------------
     ethr =  2.94E-12,  avg # of iterations =  5.0

     negative rho (up, down):  4.436E-02 0.000E+00

     total cpu time spent up to now is      391.0 secs

     End of self-consistent calculation

          k = 0.0000 0.0000 0.0000 ( 95217 PWs)   bands (ev):

   -21.6291 -20.8319 -20.7835 -13.1402 -10.5486 -10.5046  -9.3755  -8.7068
    -8.6856  -8.2213  -8.1780  -7.8297  -5.0659  -1.1834  -0.5716  -0.4331
    -0.3958

     occupation numbers 
     1.0000   1.0000   1.0000   1.0000   1.0000   1.0000   1.0000   1.0000
     1.0000   1.0000   1.0000   1.0000   0.5000   0.0000   0.0000   0.0000
     0.0000

     the Fermi energy is    -5.0380 ev

!    total energy              =    -111.14768745 Ry
     estimated scf accuracy    <          7.1E-11 Ry
     smearing contrib. (-TS)   =      -0.00482420 Ry
     internal energy E=F+TS    =    -111.14286326 Ry

     The total energy is F=E-TS. E is the sum of the following terms:
     one-electron contribution =    -397.61828435 Ry
     hartree contribution      =     200.99626469 Ry
     xc contribution           =     -33.93879208 Ry
     ewald contribution        =     119.42211987 Ry
     Dispersion Correction     =      -0.00417139 Ry
     one-center paw contrib.   =       0.00000000 Ry
      -> PAW hartree energy AE =       0.00000000 Ry
      -> PAW hartree energy PS =       0.00000000 Ry
      -> PAW xc energy AE      =       0.00000000 Ry
      -> PAW xc energy PS      =       0.00000000 Ry
      -> total E_H with PAW    =     200.99626469 Ry
      -> total E_XC with PAW   =     -33.93879208 Ry

     convergence has been achieved in   8 iterations

     negative rho (up, down):  4.436E-02 0.000E+00

     Forces acting on atoms (cartesian axes, Ry/au):

     atom    1 type  3   force =    -0.00384327   -0.00192188   -0.00479179
     atom    2 type  4   force =     0.00255237    0.00149690    0.00134590
     atom    3 type  4   force =    -0.00068428   -0.00061220    0.00093138
     atom    4 type  4   force =     0.00197518    0.00103718    0.00251451
     The non-local contrib.  to forces
     atom    1 type  3   force =    -0.00804448    0.05607634    0.14803634
     atom    2 type  4   force =    -0.05280854   -0.19812154    0.00713267
     atom    3 type  4   force =     0.19630560    0.01093686   -0.06442206
     atom    4 type  4   force =    -0.11921333    0.11912762   -0.11712206
     The ionic contribution  to forces
     atom    1 type  3   force =     0.22160842   -1.20659449   -3.65126729
     atom    2 type  4   force =     2.19953159    6.00555056   -1.85877560
     atom    3 type  4   force =    -6.82881735   -0.78423243    1.41674967
     atom    4 type  4   force =     4.40767734   -4.01472364    4.09329321
     The local contribution  to forces
     atom    1 type  3   force =    -0.21780236    1.15221807    3.50814301
     atom    2 type  4   force =    -2.14407729   -5.80576195    1.85329180
     atom    3 type  4   force =     6.63190503    0.77276426   -1.35119507
     atom    4 type  4   force =    -4.28633475    3.89669310   -3.97322684
     The core correction contribution to forces
     atom    1 type  3   force =     0.00038942   -0.00359802   -0.00967352
     atom    2 type  4   force =    -0.00041837   -0.00073877   -0.00015652
     atom    3 type  4   force =     0.00066402    0.00010052   -0.00023580
     atom    4 type  4   force =    -0.00056939    0.00029941   -0.00056561
     The Hubbard contrib.    to forces
     atom    1 type  3   force =     0.00000000    0.00000000    0.00000000
     atom    2 type  4   force =     0.00000000    0.00000000    0.00000000
     atom    3 type  4   force =     0.00000000    0.00000000    0.00000000
     atom    4 type  4   force =     0.00000000    0.00000000    0.00000000
     The SCF correction term to forces
     atom    1 type  3   force =    -0.00000058    0.00000037    0.00000020
     atom    2 type  4   force =     0.00000271    0.00000303    0.00000384
     atom    3 type  4   force =    -0.00000466    0.00000106   -0.00000729
     atom    4 type  4   force =     0.00000854   -0.00000333   -0.00000256

     Dispersion contribution to forces:
     atom    1 type  3   force =     0.00000669   -0.00002488   -0.00003040
     atom    2 type  4   force =     0.00032266    0.00056483   -0.00015015
     atom    3 type  4   force =    -0.00073652   -0.00018321    0.00004206
     atom    4 type  4   force =     0.00040717   -0.00035673    0.00013849

     Total force =     0.008062     Total SCF correction =     0.000014

     Total Dispersion Force =     0.001156


     Computing stress (Cartesian axis) and pressure


     negative rho (up, down):  4.436E-02 0.000E+00
          total   stress  (Ry/bohr**3)                   (kbar)     P=        0.04
   0.00000040   0.00000027   0.00000015            0.06        0.04        0.02
   0.00000027   0.00000013   0.00000007            0.04        0.02        0.01
   0.00000015   0.00000007   0.00000028            0.02        0.01        0.04

     kinetic stress (kbar)    145.63      0.09     -0.32
                                0.09    146.17      2.59
                               -0.32      2.59    151.94

     local   stress (kbar)  -1970.12     -4.21    -14.70
                               -4.21  -2052.09     96.84
                              -14.70     96.84   1369.16

     nonloc. stress (kbar)    136.32      0.02      0.03
                                0.02    136.23     -0.22
                                0.03     -0.22    135.72

     hartree stress (kbar)    935.57      1.85      5.88
                                1.85    977.53    -37.36
                                5.88    -37.36   -694.98

     exc-cor stress (kbar)     43.45      0.00      0.01
                                0.00     43.44     -0.05
                                0.01     -0.05     43.32

     corecor stress (kbar)    -90.35     -0.00     -0.00
                               -0.00    -90.34      0.03
                               -0.00      0.03    -90.27

     ewald   stress (kbar)    799.54      2.28      9.13
                                2.28    839.07    -61.82
                                9.13    -61.82   -914.85

     hubbard stress (kbar)      0.00      0.00      0.00
                                0.00      0.00      0.00
                                0.00      0.00      0.00

     DFT-D   stress (kbar)      0.02      0.00      0.00
                                0.00      0.01     -0.01
                                0.00     -0.01      0.00

     XDM     stress (kbar)      0.00      0.00      0.00
                                0.00      0.00      0.00
                                0.00      0.00      0.00

     dft-nl  stress (kbar)      0.00      0.00      0.00
                                0.00      0.00      0.00
                                0.00      0.00      0.00

     TS-vdW  stress (kbar)      0.00      0.00      0.00
                                0.00      0.00      0.00
                                0.00      0.00      0.00


                                0.00      0.00      0.00
                                0.00      0.00      0.00


                                0.00      0.00      0.00

     Energy error            =      4.7E-05 Ry
     Gradient error          =      4.8E-03 Ry/Bohr

     number of scf cycles    =  30
     number of bfgs steps    =  29

     energy             old  =    -111.1476406549 Ry
     energy             new  =    -111.1476874536 Ry

     CASE: energy            _new < energy            _old

     new trust radius        =       0.1663849658 bohr
     new conv_thr            =       0.0000000002 Ry


ATOMIC_POSITIONS (angstrom)
Si            5.0506754953        4.5041778632       20.1785167496
Cl            5.5983999260        6.4924355775       20.0867767725
Cl            3.1067010822        4.3885966667       20.8413035442
Cl            6.2762234965        3.4438398926       21.4546829337



     Writing output data file ./out/aiida.save/
     NEW-OLD atomic charge density approx. for the potential

     negative rho (up, down):  4.456E-02 0.000E+00

     total cpu time spent up to now is      398.8 secs

     Self-consistent Calculation

     iteration #  1     ecut=    60.00 Ry     beta= 0.40
     Davidson diagonalization with overlap

---- Real-time Memory Report at c_bands before calling an iterative solver
           637 MiB given to the printing process from OS
             0 MiB allocation reported by mallinfo(arena+hblkhd)
        324110 MiB available memory on the node where the printing process lives
------------------
     ethr =  1.00E-06,  avg # of iterations = 13.0

     negative rho (up, down):  4.439E-02 0.000E+00

     total cpu time spent up to now is      399.7 secs

     total energy              =    -111.14767403 Ry
     estimated scf accuracy    <       0.00062597 Ry

     iteration #  2     ecut=    60.00 Ry     beta= 0.40
     Davidson diagonalization with overlap

---- Real-time Memory Report at c_bands before calling an iterative solver
           637 MiB given to the printing process from OS
             0 MiB allocation reported by mallinfo(arena+hblkhd)
        324102 MiB available memory on the node where the printing process lives
------------------
     ethr =  2.50E-06,  avg # of iterations =  1.0

     negative rho (up, down):  4.452E-02 0.000E+00

     total cpu time spent up to now is      400.4 secs

     total energy              =    -111.14769080 Ry
     estimated scf accuracy    <       0.00014131 Ry

     iteration #  3     ecut=    60.00 Ry     beta= 0.40
     Davidson diagonalization with overlap

---- Real-time Memory Report at c_bands before calling an iterative solver
           637 MiB given to the printing process from OS
             0 MiB allocation reported by mallinfo(arena+hblkhd)
        324101 MiB available memory on the node where the printing process lives
------------------
     ethr =  5.65E-07,  avg # of iterations =  1.0

     negative rho (up, down):  4.466E-02 0.000E+00

     total cpu time spent up to now is      401.0 secs

     total energy              =    -111.14769676 Ry
     estimated scf accuracy    <       0.00002225 Ry

     iteration #  4     ecut=    60.00 Ry     beta= 0.40
     Davidson diagonalization with overlap

---- Real-time Memory Report at c_bands before calling an iterative solver
           637 MiB given to the printing process from OS
             0 MiB allocation reported by mallinfo(arena+hblkhd)
        324101 MiB available memory on the node where the printing process lives
------------------
     ethr =  8.90E-08,  avg # of iterations =  2.0

     negative rho (up, down):  4.451E-02 0.000E+00

     total cpu time spent up to now is      401.7 secs

     total energy              =    -111.14769820 Ry
     estimated scf accuracy    <       0.00000154 Ry

     iteration #  5     ecut=    60.00 Ry     beta= 0.40
     Davidson diagonalization with overlap

---- Real-time Memory Report at c_bands before calling an iterative solver
           637 MiB given to the printing process from OS
             0 MiB allocation reported by mallinfo(arena+hblkhd)
        324100 MiB available memory on the node where the printing process lives
------------------
     ethr =  6.16E-09,  avg # of iterations =  4.0

     negative rho (up, down):  4.435E-02 0.000E+00

     total cpu time spent up to now is      402.4 secs

     total energy              =    -111.14769841 Ry
     estimated scf accuracy    <       0.00000015 Ry

     iteration #  6     ecut=    60.00 Ry     beta= 0.40
     Davidson diagonalization with overlap

---- Real-time Memory Report at c_bands before calling an iterative solver
           637 MiB given to the printing process from OS
             0 MiB allocation reported by mallinfo(arena+hblkhd)
        324100 MiB available memory on the node where the printing process lives
------------------
     ethr =  6.03E-10,  avg # of iterations =  2.0

     negative rho (up, down):  4.424E-02 0.000E+00

     total cpu time spent up to now is      403.1 secs

     total energy              =    -111.14769847 Ry
     estimated scf accuracy    <       0.00000002 Ry

     iteration #  7     ecut=    60.00 Ry     beta= 0.40
     Davidson diagonalization with overlap

---- Real-time Memory Report at c_bands before calling an iterative solver
           637 MiB given to the printing process from OS
             0 MiB allocation reported by mallinfo(arena+hblkhd)
        324099 MiB available memory on the node where the printing process lives
------------------
     ethr =  7.30E-11,  avg # of iterations =  2.0

     negative rho (up, down):  4.419E-02 0.000E+00

     total cpu time spent up to now is      403.8 secs

     total energy              =    -111.14769851 Ry
     estimated scf accuracy    <          1.6E-09 Ry

     iteration #  8     ecut=    60.00 Ry     beta= 0.40
     Davidson diagonalization with overlap

---- Real-time Memory Report at c_bands before calling an iterative solver
           637 MiB given to the printing process from OS
             0 MiB allocation reported by mallinfo(arena+hblkhd)
        324100 MiB available memory on the node where the printing process lives
------------------
     ethr =  6.35E-12,  avg # of iterations =  5.0

     negative rho (up, down):  4.414E-02 0.000E+00

     total cpu time spent up to now is      404.5 secs

     End of self-consistent calculation

          k = 0.0000 0.0000 0.0000 ( 95217 PWs)   bands (ev):

   -21.6022 -20.8103 -20.7862 -13.1385 -10.5317 -10.4988  -9.3564  -8.7024
    -8.6686  -8.2174  -8.1841  -7.8352  -5.0884  -1.2425  -0.5861  -0.4606
    -0.4045

     occupation numbers 
     1.0000   1.0000   1.0000   1.0000   1.0000   1.0000   1.0000   1.0000
     1.0000   1.0000   1.0000   1.0000   0.5000   0.0000   0.0000   0.0000
     0.0000

     the Fermi energy is    -5.0605 ev

!    total energy              =    -111.14769861 Ry
     estimated scf accuracy    <          1.4E-10 Ry
     smearing contrib. (-TS)   =      -0.00482420 Ry
     internal energy E=F+TS    =    -111.14287441 Ry

     The total energy is F=E-TS. E is the sum of the following terms:
     one-electron contribution =    -396.54679648 Ry
     hartree contribution      =     200.45992995 Ry
     xc contribution           =     -33.92719765 Ry
     ewald contribution        =     118.87537363 Ry
     Dispersion Correction     =      -0.00418385 Ry
     one-center paw contrib.   =       0.00000000 Ry
      -> PAW hartree energy AE =       0.00000000 Ry
      -> PAW hartree energy PS =       0.00000000 Ry
      -> PAW xc energy AE      =       0.00000000 Ry
      -> PAW xc energy PS      =       0.00000000 Ry
      -> total E_H with PAW    =     200.45992995 Ry
      -> total E_XC with PAW   =     -33.92719765 Ry

     convergence has been achieved in   8 iterations

     negative rho (up, down):  4.414E-02 0.000E+00

     Forces acting on atoms (cartesian axes, Ry/au):

     atom    1 type  3   force =     0.00026521    0.00026165   -0.00254369
     atom    2 type  4   force =     0.00104703   -0.00445640    0.00217991
     atom    3 type  4   force =     0.00002922   -0.00036437    0.00106049
     atom    4 type  4   force =    -0.00134146    0.00455912   -0.00069670
     The non-local contrib.  to forces
     atom    1 type  3   force =    -0.00663065    0.06560384    0.14910234
     atom    2 type  4   force =    -0.05096450   -0.20454410    0.01791439
     atom    3 type  4   force =     0.19711732    0.01169279   -0.06311697
     atom    4 type  4   force =    -0.12371992    0.11596456   -0.12545960
     The ionic contribution  to forces
     atom    1 type  3   force =     0.29621435   -1.31791340   -3.53809248
     atom    2 type  4   force =     2.07977893    5.93518550   -2.24642784
     atom    3 type  4   force =    -6.79419635   -0.83124574    1.42297311
     atom    4 type  4   force =     4.41820306   -3.78602635    4.36154721
     The local contribution  to forces
     atom    1 type  3   force =    -0.28922015    1.25714875    3.39661994
     atom    2 type  4   force =    -2.02776797   -5.73518139    2.23099906
     atom    3 type  4   force =     6.59711986    0.81927872   -1.35857447
     atom    4 type  4   force =    -4.29582539    3.67480648   -4.23651974
     The core correction contribution to forces
     atom    1 type  3   force =    -0.00010312   -0.00455010   -0.01013912
     atom    2 type  4   force =    -0.00029877   -0.00034556   -0.00017628
     atom    3 type  4   force =     0.00064916    0.00008729   -0.00025836
     atom    4 type  4   force =    -0.00035521    0.00004467   -0.00037776
     The Hubbard contrib.    to forces
     atom    1 type  3   force =     0.00000000    0.00000000    0.00000000
     atom    2 type  4   force =     0.00000000    0.00000000    0.00000000
     atom    3 type  4   force =     0.00000000    0.00000000    0.00000000
     atom    4 type  4   force =     0.00000000    0.00000000    0.00000000
     The SCF correction term to forces
     atom    1 type  3   force =    -0.00000045    0.00000002   -0.00000233
     atom    2 type  4   force =    -0.00000174   -0.00000436   -0.00001104
     atom    3 type  4   force =    -0.00000179   -0.00000140   -0.00000519
     atom    4 type  4   force =     0.00000670   -0.00000174    0.00001134

     Dispersion contribution to forces:
     atom    1 type  3   force =     0.00000608   -0.00002784   -0.00003048
     atom    2 type  4   force =     0.00030192    0.00043313   -0.00011684
     atom    3 type  4   force =    -0.00065814   -0.00017641    0.00004391
     atom    4 type  4   force =     0.00035014   -0.00022888    0.00010341

     Total force =     0.007526     Total SCF correction =     0.000019

     Total Dispersion Force =     0.000973


     Computing stress (Cartesian axis) and pressure


     negative rho (up, down):  4.414E-02 0.000E+00
          total   stress  (Ry/bohr**3)                   (kbar)     P=       -0.06
  -0.00000010   0.00000031  -0.00000014           -0.01        0.05       -0.02
   0.00000031  -0.00000114   0.00000047            0.05       -0.17        0.07
  -0.00000014   0.00000047  -0.00000004           -0.02        0.07       -0.01

     kinetic stress (kbar)    145.53      0.07     -0.40
                                0.07    146.26      2.88
                               -0.40      2.88    151.60

     local   stress (kbar)  -1965.45     -5.63    -17.51
                               -5.63  -2034.32    106.44
                              -17.51    106.44   1353.36

     nonloc. stress (kbar)    136.31      0.03      0.01
                                0.03    136.14     -0.22
                                0.01     -0.22    135.74

     hartree stress (kbar)    933.22      2.40      7.06
                                2.40    969.95    -41.12
                                7.06    -41.12   -688.30

     exc-cor stress (kbar)     43.47      0.00      0.01
                                0.00     43.45     -0.05
                                0.01     -0.05     43.35

     corecor stress (kbar)    -90.35     -0.00     -0.00
                               -0.00    -90.33      0.03
                               -0.00      0.03    -90.27

     ewald   stress (kbar)    797.24      3.17     10.82
                                3.17    828.68    -67.88
                               10.82    -67.88   -905.48

     hubbard stress (kbar)      0.00      0.00      0.00
                                0.00      0.00      0.00
                                0.00      0.00      0.00

     DFT-D   stress (kbar)      0.02      0.00     -0.00
                                0.00      0.00     -0.01
                               -0.00     -0.01      0.00

     XDM     stress (kbar)      0.00      0.00      0.00
                                0.00      0.00      0.00
                                0.00      0.00      0.00

     dft-nl  stress (kbar)      0.00      0.00      0.00
                                0.00      0.00      0.00
                                0.00      0.00      0.00

     TS-vdW  stress (kbar)      0.00      0.00      0.00
                                0.00      0.00      0.00
                                0.00      0.00      0.00


                                0.00      0.00      0.00
                                0.00      0.00      0.00


                                0.00      0.00      0.00

     Energy error            =      1.1E-05 Ry
     Gradient error          =      4.6E-03 Ry/Bohr

     number of scf cycles    =  31
     number of bfgs steps    =  30

     energy             old  =    -111.1476874536 Ry
     energy             new  =    -111.1476986073 Ry

     CASE: energy            _new < energy            _old

     new trust radius        =       0.1111027105 bohr
     new conv_thr            =       0.0000000002 Ry


ATOMIC_POSITIONS (angstrom)
Si            5.0458819338        4.5168310717       20.1678161804
Cl            5.6174501895        6.4939673006       20.1423767794
Cl            3.1052056090        4.4030403579       20.8399663050
Cl            6.2634622677        3.4152112698       21.4111207351



     Writing output data file ./out/aiida.save/
     NEW-OLD atomic charge density approx. for the potential

     negative rho (up, down):  4.443E-02 0.000E+00

     total cpu time spent up to now is      412.3 secs

     Self-consistent Calculation

     iteration #  1     ecut=    60.00 Ry     beta= 0.40
     Davidson diagonalization with overlap

---- Real-time Memory Report at c_bands before calling an iterative solver
           637 MiB given to the printing process from OS
             0 MiB allocation reported by mallinfo(arena+hblkhd)
        324107 MiB available memory on the node where the printing process lives
------------------
     ethr =  1.00E-06,  avg # of iterations = 11.0

     negative rho (up, down):  4.436E-02 0.000E+00

     total cpu time spent up to now is      413.1 secs

     total energy              =    -111.14776509 Ry
     estimated scf accuracy    <       0.00025681 Ry

     iteration #  2     ecut=    60.00 Ry     beta= 0.40
     Davidson diagonalization with overlap

---- Real-time Memory Report at c_bands before calling an iterative solver
           637 MiB given to the printing process from OS
             0 MiB allocation reported by mallinfo(arena+hblkhd)
        324099 MiB available memory on the node where the printing process lives
------------------
     ethr =  1.03E-06,  avg # of iterations =  1.0

     negative rho (up, down):  4.458E-02 0.000E+00

     total cpu time spent up to now is      413.8 secs

     total energy              =    -111.14776899 Ry
     estimated scf accuracy    <       0.00005978 Ry

     iteration #  3     ecut=    60.00 Ry     beta= 0.40
     Davidson diagonalization with overlap

---- Real-time Memory Report at c_bands before calling an iterative solver
           637 MiB given to the printing process from OS
             0 MiB allocation reported by mallinfo(arena+hblkhd)
        324099 MiB available memory on the node where the printing process lives
------------------
     ethr =  2.39E-07,  avg # of iterations =  1.0

     negative rho (up, down):  4.463E-02 0.000E+00

     total cpu time spent up to now is      414.4 secs

     total energy              =    -111.14777209 Ry
     estimated scf accuracy    <       0.00000712 Ry

     iteration #  4     ecut=    60.00 Ry     beta= 0.40
     Davidson diagonalization with overlap

---- Real-time Memory Report at c_bands before calling an iterative solver
           637 MiB given to the printing process from OS
             0 MiB allocation reported by mallinfo(arena+hblkhd)
        324099 MiB available memory on the node where the printing process lives
------------------
     ethr =  2.85E-08,  avg # of iterations =  2.0

     negative rho (up, down):  4.453E-02 0.000E+00

     total cpu time spent up to now is      415.1 secs

     total energy              =    -111.14777261 Ry
     estimated scf accuracy    <       0.00000062 Ry

     iteration #  5     ecut=    60.00 Ry     beta= 0.40
     Davidson diagonalization with overlap

---- Real-time Memory Report at c_bands before calling an iterative solver
           637 MiB given to the printing process from OS
             0 MiB allocation reported by mallinfo(arena+hblkhd)
        324099 MiB available memory on the node where the printing process lives
------------------
     ethr =  2.49E-09,  avg # of iterations =  5.0

     negative rho (up, down):  4.441E-02 0.000E+00

     total cpu time spent up to now is      415.8 secs

     total energy              =    -111.14777274 Ry
     estimated scf accuracy    <       0.00000006 Ry

     iteration #  6     ecut=    60.00 Ry     beta= 0.40
     Davidson diagonalization with overlap

---- Real-time Memory Report at c_bands before calling an iterative solver
           637 MiB given to the printing process from OS
             0 MiB allocation reported by mallinfo(arena+hblkhd)
        324097 MiB available memory on the node where the printing process lives
------------------
     ethr =  2.45E-10,  avg # of iterations =  3.0

     negative rho (up, down):  4.435E-02 0.000E+00

     total cpu time spent up to now is      416.5 secs

     total energy              =    -111.14777276 Ry
     estimated scf accuracy    <          7.0E-09 Ry

     iteration #  7     ecut=    60.00 Ry     beta= 0.40
     Davidson diagonalization with overlap

---- Real-time Memory Report at c_bands before calling an iterative solver
           637 MiB given to the printing process from OS
             0 MiB allocation reported by mallinfo(arena+hblkhd)
        324098 MiB available memory on the node where the printing process lives
------------------
     ethr =  2.79E-11,  avg # of iterations =  4.0

     negative rho (up, down):  4.431E-02 0.000E+00

     total cpu time spent up to now is      417.2 secs

     total energy              =    -111.14777278 Ry
     estimated scf accuracy    <          1.0E-09 Ry

     iteration #  8     ecut=    60.00 Ry     beta= 0.40
     Davidson diagonalization with overlap

---- Real-time Memory Report at c_bands before calling an iterative solver
           637 MiB given to the printing process from OS
             0 MiB allocation reported by mallinfo(arena+hblkhd)
        324098 MiB available memory on the node where the printing process lives
------------------
     ethr =  4.02E-12,  avg # of iterations =  4.0

     negative rho (up, down):  4.428E-02 0.000E+00

     total cpu time spent up to now is      417.9 secs

     End of self-consistent calculation

          k = 0.0000 0.0000 0.0000 ( 95217 PWs)   bands (ev):

   -21.6152 -20.8142 -20.7857 -13.1382 -10.5344 -10.5025  -9.3666  -8.7025
    -8.6769  -8.2106  -8.1784  -7.8287  -5.0899  -1.1937  -0.5794  -0.4595
    -0.4004

     occupation numbers 
     1.0000   1.0000   1.0000   1.0000   1.0000   1.0000   1.0000   1.0000
     1.0000   1.0000   1.0000   1.0000   0.5000   0.0000   0.0000   0.0000
     0.0000

     the Fermi energy is    -5.0621 ev

!    total energy              =    -111.14777282 Ry
     estimated scf accuracy    <          1.5E-10 Ry
     smearing contrib. (-TS)   =      -0.00482420 Ry
     internal energy E=F+TS    =    -111.14294862 Ry

     The total energy is F=E-TS. E is the sum of the following terms:
     one-electron contribution =    -397.23173245 Ry
     hartree contribution      =     200.80459925 Ry
     xc contribution           =     -33.93335142 Ry
     ewald contribution        =     119.22171147 Ry
     Dispersion Correction     =      -0.00417548 Ry
     one-center paw contrib.   =       0.00000000 Ry
      -> PAW hartree energy AE =       0.00000000 Ry
      -> PAW hartree energy PS =       0.00000000 Ry
      -> PAW xc energy AE      =       0.00000000 Ry
      -> PAW xc energy PS      =       0.00000000 Ry
      -> total E_H with PAW    =     200.80459925 Ry
      -> total E_XC with PAW   =     -33.93335142 Ry

     convergence has been achieved in   8 iterations

     negative rho (up, down):  4.428E-02 0.000E+00

     Forces acting on atoms (cartesian axes, Ry/au):

     atom    1 type  3   force =    -0.00116967   -0.00139654   -0.00226165
     atom    2 type  4   force =     0.00173099   -0.00079339    0.00120007
     atom    3 type  4   force =    -0.00056370   -0.00052836    0.00073829
     atom    4 type  4   force =     0.00000238    0.00271829    0.00032329
     The non-local contrib.  to forces
     atom    1 type  3   force =    -0.00683775    0.05873835    0.14813391
     atom    2 type  4   force =    -0.05303838   -0.20052455    0.00950370
     atom    3 type  4   force =     0.19612529    0.01117112   -0.06496224
     atom    4 type  4   force =    -0.12180547    0.11771938   -0.12197054
     The ionic contribution  to forces
     atom    1 type  3   force =     0.24448605   -1.25642705   -3.63131290
     atom    2 type  4   force =     2.16139134    5.98354847   -1.98867991
     atom    3 type  4   force =    -6.81536225   -0.80047704    1.42672599
     atom    4 type  4   force =     4.40948486   -3.92664438    4.19326682
     The local contribution  to forces
     atom    1 type  3   force =    -0.23893726    1.20012483    3.49074171
     atom    2 type  4   force =    -2.10657453   -5.78375419    1.98064579
     atom    3 type  4   force =     6.61871789    0.78884464   -1.36082813
     atom    4 type  4   force =    -4.28764582    3.81179810   -4.07066581
     The core correction contribution to forces
     atom    1 type  3   force =     0.00011018   -0.00380857   -0.00979151
     atom    2 type  4   force =    -0.00035651   -0.00058748   -0.00013427
     atom    3 type  4   force =     0.00067304    0.00009574   -0.00023163
     atom    4 type  4   force =    -0.00043375    0.00017461   -0.00041955
     The Hubbard contrib.    to forces
     atom    1 type  3   force =     0.00000000    0.00000000    0.00000000
     atom    2 type  4   force =     0.00000000    0.00000000    0.00000000
     atom    3 type  4   force =     0.00000000    0.00000000    0.00000000
     atom    4 type  4   force =     0.00000000    0.00000000    0.00000000
     The SCF correction term to forces
     atom    1 type  3   force =     0.00000361    0.00000095   -0.00000202
     atom    2 type  4   force =     0.00000039   -0.00000833    0.00001041
     atom    3 type  4   force =    -0.00000844    0.00001489   -0.00000738
     atom    4 type  4   force =     0.00001011   -0.00000291   -0.00002234

     Dispersion contribution to forces:
     atom    1 type  3   force =     0.00000615   -0.00002590   -0.00003082
     atom    2 type  4   force =     0.00030933    0.00053183   -0.00014563
     atom    3 type  4   force =    -0.00070858   -0.00017857    0.00004171
     atom    4 type  4   force =     0.00039311   -0.00032736    0.00013473

     Total force =     0.004705     Total SCF correction =     0.000034

     Total Dispersion Force =     0.001103


     Computing stress (Cartesian axis) and pressure


     negative rho (up, down):  4.428E-02 0.000E+00
          total   stress  (Ry/bohr**3)                   (kbar)     P=       -0.01
   0.00000015   0.00000031  -0.00000003            0.02        0.05       -0.00
   0.00000031  -0.00000039   0.00000024            0.05       -0.06        0.03
  -0.00000003   0.00000024   0.00000006           -0.00        0.03        0.01

     kinetic stress (kbar)    145.59      0.06     -0.35
                                0.06    146.22      2.66
                               -0.35      2.66    151.77

     local   stress (kbar)  -1968.61     -4.94    -15.69
                               -4.94  -2045.43    100.13
                              -15.69    100.13   1363.40

     nonloc. stress (kbar)    136.31      0.03      0.02
                                0.03    136.19     -0.22
                                0.02     -0.22    135.72

     hartree stress (kbar)    934.81      2.11      6.32
                                2.11    974.73    -38.68
                                6.32    -38.68   -692.58

     exc-cor stress (kbar)     43.46      0.00      0.01
                                0.00     43.44     -0.05
                                0.01     -0.05     43.33

     corecor stress (kbar)    -90.35     -0.00     -0.00
                               -0.00    -90.33      0.03
                               -0.00      0.03    -90.27

     ewald   stress (kbar)    798.79      2.79      9.69
                                2.79    835.11    -63.82
                                9.69    -63.82   -911.36

     hubbard stress (kbar)      0.00      0.00      0.00
                                0.00      0.00      0.00
                                0.00      0.00      0.00

     DFT-D   stress (kbar)      0.02      0.00      0.00
                                0.00      0.01     -0.01
                                0.00     -0.01      0.00

     XDM     stress (kbar)      0.00      0.00      0.00
                                0.00      0.00      0.00
                                0.00      0.00      0.00

     dft-nl  stress (kbar)      0.00      0.00      0.00
                                0.00      0.00      0.00
                                0.00      0.00      0.00

     TS-vdW  stress (kbar)      0.00      0.00      0.00
                                0.00      0.00      0.00
                                0.00      0.00      0.00


                                0.00      0.00      0.00
                                0.00      0.00      0.00


                                0.00      0.00      0.00

     Energy error            =      7.4E-05 Ry
     Gradient error          =      2.7E-03 Ry/Bohr

     number of scf cycles    =  32
     number of bfgs steps    =  31

     energy             old  =    -111.1476986073 Ry
     energy             new  =    -111.1477728165 Ry

     CASE: energy            _new < energy            _old

     new trust radius        =       0.0117025245 bohr
     new conv_thr            =       0.0000000002 Ry


ATOMIC_POSITIONS (angstrom)
Si            5.0437886404        4.5160336074       20.1662178364
Cl            5.6200613930        6.4911545969       20.1414302477
Cl            3.1040418678        4.4007801791       20.8406479634
Cl            6.2641080988        3.4210816166       21.4129839524



     Writing output data file ./out/aiida.save/
     NEW-OLD atomic charge density approx. for the potential

     negative rho (up, down):  4.423E-02 0.000E+00

     total cpu time spent up to now is      425.6 secs

     Self-consistent Calculation

     iteration #  1     ecut=    60.00 Ry     beta= 0.40
     Davidson diagonalization with overlap

---- Real-time Memory Report at c_bands before calling an iterative solver
           638 MiB given to the printing process from OS
             0 MiB allocation reported by mallinfo(arena+hblkhd)
        324106 MiB available memory on the node where the printing process lives
------------------
     ethr =  1.00E-06,  avg # of iterations =  6.0

     Threshold (ethr) on eigenvalues was too large:
     Diagonalizing with lowered threshold

     Davidson diagonalization with overlap

---- Real-time Memory Report at c_bands before calling an iterative solver
           638 MiB given to the printing process from OS
             0 MiB allocation reported by mallinfo(arena+hblkhd)
        324096 MiB available memory on the node where the printing process lives
------------------
     ethr =  2.05E-08,  avg # of iterations =  5.0

     negative rho (up, down):  4.424E-02 0.000E+00

     total cpu time spent up to now is      426.8 secs

     total energy              =    -111.14782635 Ry
     estimated scf accuracy    <       0.00000508 Ry

     iteration #  2     ecut=    60.00 Ry     beta= 0.40
     Davidson diagonalization with overlap

---- Real-time Memory Report at c_bands before calling an iterative solver
           638 MiB given to the printing process from OS
             0 MiB allocation reported by mallinfo(arena+hblkhd)
        324096 MiB available memory on the node where the printing process lives
------------------
     ethr =  2.03E-08,  avg # of iterations =  1.0

     negative rho (up, down):  4.424E-02 0.000E+00

     total cpu time spent up to now is      427.4 secs

     total energy              =    -111.14782640 Ry
     estimated scf accuracy    <       0.00000104 Ry

     iteration #  3     ecut=    60.00 Ry     beta= 0.40
     Davidson diagonalization with overlap

---- Real-time Memory Report at c_bands before calling an iterative solver
           638 MiB given to the printing process from OS
             0 MiB allocation reported by mallinfo(arena+hblkhd)
        324094 MiB available memory on the node where the printing process lives
------------------
     ethr =  4.16E-09,  avg # of iterations =  2.0

     negative rho (up, down):  4.425E-02 0.000E+00

     total cpu time spent up to now is      428.1 secs

     total energy              =    -111.14782647 Ry
     estimated scf accuracy    <       0.00000011 Ry

     iteration #  4     ecut=    60.00 Ry     beta= 0.40
     Davidson diagonalization with overlap

---- Real-time Memory Report at c_bands before calling an iterative solver
           638 MiB given to the printing process from OS
             0 MiB allocation reported by mallinfo(arena+hblkhd)
        324093 MiB available memory on the node where the printing process lives
------------------
     ethr =  4.51E-10,  avg # of iterations =  2.0

     negative rho (up, down):  4.425E-02 0.000E+00

     total cpu time spent up to now is      428.8 secs

     total energy              =    -111.14782648 Ry
     estimated scf accuracy    <          9.0E-09 Ry

     iteration #  5     ecut=    60.00 Ry     beta= 0.40
     Davidson diagonalization with overlap

---- Real-time Memory Report at c_bands before calling an iterative solver
           638 MiB given to the printing process from OS
             0 MiB allocation reported by mallinfo(arena+hblkhd)
        324092 MiB available memory on the node where the printing process lives
------------------
     ethr =  3.60E-11,  avg # of iterations =  4.0

     negative rho (up, down):  4.425E-02 0.000E+00

     total cpu time spent up to now is      429.5 secs

     total energy              =    -111.14782649 Ry
     estimated scf accuracy    <          1.3E-09 Ry

     iteration #  6     ecut=    60.00 Ry     beta= 0.40
     Davidson diagonalization with overlap

---- Real-time Memory Report at c_bands before calling an iterative solver
           638 MiB given to the printing process from OS
             0 MiB allocation reported by mallinfo(arena+hblkhd)
        324084 MiB available memory on the node where the printing process lives
------------------
     ethr =  5.03E-12,  avg # of iterations =  2.0

     negative rho (up, down):  4.424E-02 0.000E+00

     total cpu time spent up to now is      430.2 secs

     total energy              =    -111.14782648 Ry
     estimated scf accuracy    <          1.7E-10 Ry

     iteration #  7     ecut=    60.00 Ry     beta= 0.40
     Davidson diagonalization with overlap

---- Real-time Memory Report at c_bands before calling an iterative solver
           638 MiB given to the printing process from OS
             0 MiB allocation reported by mallinfo(arena+hblkhd)
        324068 MiB available memory on the node where the printing process lives
------------------
     ethr =  6.71E-13,  avg # of iterations =  5.0

     negative rho (up, down):  4.424E-02 0.000E+00

     total cpu time spent up to now is      430.9 secs

     End of self-consistent calculation

          k = 0.0000 0.0000 0.0000 ( 95217 PWs)   bands (ev):

   -21.6160 -20.8102 -20.7879 -13.1379 -10.5302 -10.5055  -9.3675  -8.7003
    -8.6790  -8.2046  -8.1795  -7.8275  -5.0951  -1.1824  -0.5736  -0.4707
    -0.4007

     occupation numbers 
     1.0000   1.0000   1.0000   1.0000   1.0000   1.0000   1.0000   1.0000
     1.0000   1.0000   1.0000   1.0000   0.5000   0.0000   0.0000   0.0000
     0.0000

     the Fermi energy is    -5.0673 ev

!    total energy              =    -111.14782648 Ry
     estimated scf accuracy    <          2.1E-11 Ry
     smearing contrib. (-TS)   =      -0.00482420 Ry
     internal energy E=F+TS    =    -111.14300228 Ry

     The total energy is F=E-TS. E is the sum of the following terms:
     one-electron contribution =    -397.24981126 Ry
     hartree contribution      =     200.81430454 Ry
     xc contribution           =     -33.93376709 Ry
     ewald contribution        =     119.23044549 Ry
     Dispersion Correction     =      -0.00417397 Ry
     one-center paw contrib.   =       0.00000000 Ry
      -> PAW hartree energy AE =       0.00000000 Ry
      -> PAW hartree energy PS =       0.00000000 Ry
      -> PAW xc energy AE      =       0.00000000 Ry
      -> PAW xc energy PS      =       0.00000000 Ry
      -> total E_H with PAW    =     200.81430454 Ry
      -> total E_XC with PAW   =     -33.93376709 Ry

     convergence has been achieved in   7 iterations

     negative rho (up, down):  4.424E-02 0.000E+00

     Forces acting on atoms (cartesian axes, Ry/au):

     atom    1 type  3   force =    -0.00072595   -0.00169121   -0.00170681
     atom    2 type  4   force =     0.00142403   -0.00026933    0.00091205
     atom    3 type  4   force =    -0.00058778   -0.00036775    0.00063322
     atom    4 type  4   force =    -0.00011029    0.00232829    0.00016155
     The non-local contrib.  to forces
     atom    1 type  3   force =    -0.00705710    0.05849455    0.14747966
     atom    2 type  4   force =    -0.05433155   -0.19973168    0.00878931
     atom    3 type  4   force =     0.19591853    0.01166589   -0.06539553
     atom    4 type  4   force =    -0.12240956    0.11628457   -0.12278665
     The ionic contribution  to forces
     atom    1 type  3   force =     0.22980643   -1.26554728   -3.64305922
     atom    2 type  4   force =     2.16688798    5.99036182   -1.99545784
     atom    3 type  4   force =    -6.81307225   -0.80356374    1.43018606
     atom    4 type  4   force =     4.41637784   -3.92125079    4.20833100
     The local contribution  to forces
     atom    1 type  3   force =    -0.22365699    1.20913148    3.50359221
     atom    2 type  4   force =    -2.11109013   -5.79083346    1.98784671
     atom    3 type  4   force =     6.61658626    0.79160912   -1.36397281
     atom    4 type  4   force =    -4.29406013    3.80745101   -4.08512804
     The core correction contribution to forces
     atom    1 type  3   force =     0.00017578   -0.00374551   -0.00969002
     atom    2 type  4   force =    -0.00033578   -0.00062193   -0.00011355
     atom    3 type  4   force =     0.00067754    0.00008516   -0.00022738
     atom    4 type  4   force =    -0.00042104    0.00019558   -0.00040319
     The Hubbard contrib.    to forces
     atom    1 type  3   force =     0.00000000    0.00000000    0.00000000
     atom    2 type  4   force =     0.00000000    0.00000000    0.00000000
     atom    3 type  4   force =     0.00000000    0.00000000    0.00000000
     atom    4 type  4   force =     0.00000000    0.00000000    0.00000000
     The SCF correction term to forces
     atom    1 type  3   force =     0.00000072    0.00000013    0.00000102
     atom    2 type  4   force =     0.00000297   -0.00000073    0.00000396
     atom    3 type  4   force =     0.00000317    0.00000363    0.00000420
     atom    4 type  4   force =     0.00000042    0.00000700   -0.00000179

     Dispersion contribution to forces:
     atom    1 type  3   force =     0.00000599   -0.00002588   -0.00003094
     atom    2 type  4   force =     0.00029131    0.00055535   -0.00015702
     atom    3 type  4   force =    -0.00070026   -0.00016911    0.00003821
     atom    4 type  4   force =     0.00040296   -0.00036037    0.00014975

     Total force =     0.003946     Total SCF correction =     0.000011

     Total Dispersion Force =     0.001120


     Computing stress (Cartesian axis) and pressure


     negative rho (up, down):  4.424E-02 0.000E+00
          total   stress  (Ry/bohr**3)                   (kbar)     P=       -0.01
   0.00000013   0.00000027  -0.00000004            0.02        0.04       -0.01
   0.00000027  -0.00000028   0.00000021            0.04       -0.04        0.03
  -0.00000004   0.00000021   0.00000004           -0.01        0.03        0.01

     kinetic stress (kbar)    145.57      0.01     -0.35
                                0.01    146.28      2.64
                               -0.35      2.64    151.74

     local   stress (kbar)  -1969.17     -5.40    -15.89
                               -5.40  -2044.27    100.32
                              -15.89    100.32   1362.69

     nonloc. stress (kbar)    136.31      0.03      0.02
                                0.03    136.20     -0.22
                                0.02     -0.22    135.72

     hartree stress (kbar)    935.05      2.25      6.39
                                2.25    974.26    -38.78
                                6.39    -38.78   -692.29

     exc-cor stress (kbar)     43.46      0.00      0.01
                                0.00     43.44     -0.05
                                0.01     -0.05     43.33

     corecor stress (kbar)    -90.35     -0.00     -0.00
                               -0.00    -90.34      0.03
                               -0.00      0.03    -90.27

     ewald   stress (kbar)    799.13      3.15      9.82
                                3.15    834.38    -63.90
                                9.82    -63.90   -910.92

     hubbard stress (kbar)      0.00      0.00      0.00
                                0.00      0.00      0.00
                                0.00      0.00      0.00

     DFT-D   stress (kbar)      0.02      0.00      0.00
                                0.00      0.01     -0.01
                                0.00     -0.01      0.00

     XDM     stress (kbar)      0.00      0.00      0.00
                                0.00      0.00      0.00
                                0.00      0.00      0.00

     dft-nl  stress (kbar)      0.00      0.00      0.00
                                0.00      0.00      0.00
                                0.00      0.00      0.00

     TS-vdW  stress (kbar)      0.00      0.00      0.00
                                0.00      0.00      0.00
                                0.00      0.00      0.00


                                0.00      0.00      0.00
                                0.00      0.00      0.00


                                0.00      0.00      0.00

     Energy error            =      5.4E-05 Ry
     Gradient error          =      2.3E-03 Ry/Bohr

     number of scf cycles    =  33
     number of bfgs steps    =  32

     energy             old  =    -111.1477728165 Ry
     energy             new  =    -111.1478264813 Ry

     CASE: energy            _new < energy            _old

     new trust radius        =       0.0128727770 bohr
     new conv_thr            =       0.0000000002 Ry


ATOMIC_POSITIONS (angstrom)
Si            5.0432000153        4.5145879829       20.1662596649
Cl            5.6198733460        6.4895797141       20.1367303032
Cl            3.1036103296        4.3985764044       20.8411048677
Cl            6.2653163091        3.4263058986       21.4171851642



     Writing output data file ./out/aiida.save/
     NEW-OLD atomic charge density approx. for the potential

     negative rho (up, down):  4.413E-02 0.000E+00

     total cpu time spent up to now is      438.6 secs

     Self-consistent Calculation

     iteration #  1     ecut=    60.00 Ry     beta= 0.40
     Davidson diagonalization with overlap

---- Real-time Memory Report at c_bands before calling an iterative solver
           638 MiB given to the printing process from OS
             0 MiB allocation reported by mallinfo(arena+hblkhd)
        324106 MiB available memory on the node where the printing process lives
------------------
     ethr =  1.00E-06,  avg # of iterations =  6.0

     Threshold (ethr) on eigenvalues was too large:
     Diagonalizing with lowered threshold

     Davidson diagonalization with overlap

---- Real-time Memory Report at c_bands before calling an iterative solver
           638 MiB given to the printing process from OS
             0 MiB allocation reported by mallinfo(arena+hblkhd)
        324097 MiB available memory on the node where the printing process lives
------------------
     ethr =  1.45E-08,  avg # of iterations =  6.0

     negative rho (up, down):  4.413E-02 0.000E+00

     total cpu time spent up to now is      439.8 secs

     total energy              =    -111.14784956 Ry
     estimated scf accuracy    <       0.00000296 Ry

     iteration #  2     ecut=    60.00 Ry     beta= 0.40
     Davidson diagonalization with overlap

---- Real-time Memory Report at c_bands before calling an iterative solver
           638 MiB given to the printing process from OS
             0 MiB allocation reported by mallinfo(arena+hblkhd)
        324100 MiB available memory on the node where the printing process lives
------------------
     ethr =  1.18E-08,  avg # of iterations =  1.0

     negative rho (up, down):  4.415E-02 0.000E+00

     total cpu time spent up to now is      440.5 secs

     total energy              =    -111.14784954 Ry
     estimated scf accuracy    <       0.00000073 Ry

     iteration #  3     ecut=    60.00 Ry     beta= 0.40
     Davidson diagonalization with overlap

---- Real-time Memory Report at c_bands before calling an iterative solver
           638 MiB given to the printing process from OS
             0 MiB allocation reported by mallinfo(arena+hblkhd)
        324097 MiB available memory on the node where the printing process lives
------------------
     ethr =  2.92E-09,  avg # of iterations =  1.0

     negative rho (up, down):  4.415E-02 0.000E+00

     total cpu time spent up to now is      441.1 secs

     total energy              =    -111.14784958 Ry
     estimated scf accuracy    <       0.00000005 Ry

     iteration #  4     ecut=    60.00 Ry     beta= 0.40
     Davidson diagonalization with overlap

---- Real-time Memory Report at c_bands before calling an iterative solver
           638 MiB given to the printing process from OS
             0 MiB allocation reported by mallinfo(arena+hblkhd)
        324097 MiB available memory on the node where the printing process lives
------------------
     ethr =  2.19E-10,  avg # of iterations =  4.0

     negative rho (up, down):  4.414E-02 0.000E+00

     total cpu time spent up to now is      441.8 secs

     total energy              =    -111.14784959 Ry
     estimated scf accuracy    <          7.5E-09 Ry

     iteration #  5     ecut=    60.00 Ry     beta= 0.40
     Davidson diagonalization with overlap

---- Real-time Memory Report at c_bands before calling an iterative solver
           638 MiB given to the printing process from OS
             0 MiB allocation reported by mallinfo(arena+hblkhd)
        324099 MiB available memory on the node where the printing process lives
------------------
     ethr =  3.00E-11,  avg # of iterations =  2.0

     negative rho (up, down):  4.414E-02 0.000E+00

     total cpu time spent up to now is      442.5 secs

     total energy              =    -111.14784959 Ry
     estimated scf accuracy    <          7.5E-10 Ry

     iteration #  6     ecut=    60.00 Ry     beta= 0.40
     Davidson diagonalization with overlap

---- Real-time Memory Report at c_bands before calling an iterative solver
           638 MiB given to the printing process from OS
             0 MiB allocation reported by mallinfo(arena+hblkhd)
        324096 MiB available memory on the node where the printing process lives
------------------
     ethr =  2.99E-12,  avg # of iterations =  2.0

     negative rho (up, down):  4.414E-02 0.000E+00

     total cpu time spent up to now is      443.2 secs

     End of self-consistent calculation

          k = 0.0000 0.0000 0.0000 ( 95217 PWs)   bands (ev):

   -21.6158 -20.8085 -20.7888 -13.1378 -10.5284 -10.5067  -9.3675  -8.6993
    -8.6797  -8.2025  -8.1803  -7.8273  -5.0971  -1.1796  -0.5711  -0.4755
    -0.4010

     occupation numbers 
     1.0000   1.0000   1.0000   1.0000   1.0000   1.0000   1.0000   1.0000
     1.0000   1.0000   1.0000   1.0000   0.5000   0.0000   0.0000   0.0000
     0.0000

     the Fermi energy is    -5.0692 ev

!    total energy              =    -111.14784959 Ry
     estimated scf accuracy    <          1.5E-10 Ry
     smearing contrib. (-TS)   =      -0.00482420 Ry
     internal energy E=F+TS    =    -111.14302540 Ry

     The total energy is F=E-TS. E is the sum of the following terms:
     one-electron contribution =    -397.21578173 Ry
     hartree contribution      =     200.79742070 Ry
     xc contribution           =     -33.93369942 Ry
     ewald contribution        =     119.21320856 Ry
     Dispersion Correction     =      -0.00417351 Ry
     one-center paw contrib.   =       0.00000000 Ry
      -> PAW hartree energy AE =       0.00000000 Ry
      -> PAW hartree energy PS =       0.00000000 Ry
      -> PAW xc energy AE      =       0.00000000 Ry
      -> PAW xc energy PS      =       0.00000000 Ry
      -> total E_H with PAW    =     200.79742070 Ry
      -> total E_XC with PAW   =     -33.93369942 Ry

     convergence has been achieved in   6 iterations

     negative rho (up, down):  4.414E-02 0.000E+00

     Forces acting on atoms (cartesian axes, Ry/au):

     atom    1 type  3   force =    -0.00052189   -0.00167879   -0.00152887
     atom    2 type  4   force =     0.00123952   -0.00023347    0.00082838
     atom    3 type  4   force =    -0.00054467   -0.00027988    0.00059765
     atom    4 type  4   force =    -0.00017297    0.00219214    0.00010284
     The non-local contrib.  to forces
     atom    1 type  3   force =    -0.00723244    0.05890541    0.14715794
     atom    2 type  4   force =    -0.05478873   -0.19959801    0.00905833
     atom    3 type  4   force =     0.19590979    0.01192783   -0.06548906
     atom    4 type  4   force =    -0.12274985    0.11532009   -0.12337116
     The ionic contribution  to forces
     atom    1 type  3   force =     0.22587778   -1.27513104   -3.64234741
     atom    2 type  4   force =     2.16337238    5.99117151   -2.01897965
     atom    3 type  4   force =    -6.81066224   -0.80736908    1.43159563
     atom    4 type  4   force =     4.42141208   -3.90867139    4.22973143
     The local contribution  to forces
     atom    1 type  3   force =    -0.21937934    1.21834416    3.50334575
     atom    2 type  4   force =    -2.10730140   -5.79174714    2.01101580
     atom    3 type  4   force =     6.61422494    0.79524616   -1.36531699
     atom    4 type  4   force =    -4.29882346    3.79571465   -4.10601162
     The core correction contribution to forces
     atom    1 type  3   force =     0.00020720   -0.00377166   -0.00965383
     atom    2 type  4   force =    -0.00032173   -0.00062472   -0.00010527
     atom    3 type  4   force =     0.00067658    0.00007952   -0.00022592
     atom    4 type  4   force =    -0.00041556    0.00020327   -0.00039821
     The Hubbard contrib.    to forces
     atom    1 type  3   force =     0.00000000    0.00000000    0.00000000
     atom    2 type  4   force =     0.00000000    0.00000000    0.00000000
     atom    3 type  4   force =     0.00000000    0.00000000    0.00000000
     atom    4 type  4   force =     0.00000000    0.00000000    0.00000000
     The SCF correction term to forces
     atom    1 type  3   force =     0.00000036    0.00000041    0.00000032
     atom    2 type  4   force =    -0.00000159    0.00000381    0.00000137
     atom    3 type  4   force =     0.00000131    0.00000021   -0.00000194
     atom    4 type  4   force =    -0.00000058   -0.00000379   -0.00000278

     Dispersion contribution to forces:
     atom    1 type  3   force =     0.00000593   -0.00002602   -0.00003095
     atom    2 type  4   force =     0.00028196    0.00056113   -0.00016152
     atom    3 type  4   force =    -0.00069366   -0.00016447    0.00003662
     atom    4 type  4   force =     0.00040577   -0.00037064    0.00015585

     Total force =     0.003645     Total SCF correction =     0.000007

     Total Dispersion Force =     0.001122


     Computing stress (Cartesian axis) and pressure


     negative rho (up, down):  4.414E-02 0.000E+00
          total   stress  (Ry/bohr**3)                   (kbar)     P=       -0.01
   0.00000011   0.00000025  -0.00000005            0.02        0.04       -0.01
   0.00000025  -0.00000026   0.00000020            0.04       -0.04        0.03
  -0.00000005   0.00000020   0.00000003           -0.01        0.03        0.00

     kinetic stress (kbar)    145.55     -0.01     -0.36
                               -0.01    146.31      2.64
                               -0.36      2.64    151.72

     local   stress (kbar)  -1969.23     -5.68    -16.13
                               -5.68  -2042.89    100.93
                              -16.13    100.93   1361.58

     nonloc. stress (kbar)    136.31      0.03      0.02
                                0.03    136.20     -0.22
                                0.02     -0.22    135.72

     hartree stress (kbar)    935.06      2.35      6.48
                                2.35    973.68    -39.03
                                6.48    -39.03   -691.82

     exc-cor stress (kbar)     43.46      0.00      0.01
                                0.00     43.44     -0.05
                                0.01     -0.05     43.33

     corecor stress (kbar)    -90.35     -0.00     -0.00
                               -0.00    -90.33      0.03
                               -0.00      0.03    -90.27

     ewald   stress (kbar)    799.19      3.35      9.97
                                3.35    833.55    -64.26
                                9.97    -64.26   -910.25

     hubbard stress (kbar)      0.00      0.00      0.00
                                0.00      0.00      0.00
                                0.00      0.00      0.00

     DFT-D   stress (kbar)      0.02      0.00      0.00
                                0.00      0.01     -0.01
                                0.00     -0.01      0.00

     XDM     stress (kbar)      0.00      0.00      0.00
                                0.00      0.00      0.00
                                0.00      0.00      0.00

     dft-nl  stress (kbar)      0.00      0.00      0.00
                                0.00      0.00      0.00
                                0.00      0.00      0.00

     TS-vdW  stress (kbar)      0.00      0.00      0.00
                                0.00      0.00      0.00
                                0.00      0.00      0.00


                                0.00      0.00      0.00
                                0.00      0.00      0.00


                                0.00      0.00      0.00

     Energy error            =      2.3E-05 Ry
     Gradient error          =      2.2E-03 Ry/Bohr

     number of scf cycles    =  34
     number of bfgs steps    =  33

     energy             old  =    -111.1478264813 Ry
     energy             new  =    -111.1478495936 Ry

     CASE: energy            _new < energy            _old

     new trust radius        =       0.0193091655 bohr
     new conv_thr            =       0.0000000002 Ry


ATOMIC_POSITIONS (angstrom)
Si            5.0428154055        4.5122915648       20.1667264654
Cl            5.6187134002        6.4876012012       20.1288596055
Cl            3.1032808093        4.3954467611       20.8417214947
Cl            6.2671903849        3.4337104729       21.4239724343



     Writing output data file ./out/aiida.save/
     NEW-OLD atomic charge density approx. for the potential

     negative rho (up, down):  4.396E-02 0.000E+00

     total cpu time spent up to now is      450.9 secs

     Self-consistent Calculation

     iteration #  1     ecut=    60.00 Ry     beta= 0.40
     Davidson diagonalization with overlap

---- Real-time Memory Report at c_bands before calling an iterative solver
           638 MiB given to the printing process from OS
             0 MiB allocation reported by mallinfo(arena+hblkhd)
        324103 MiB available memory on the node where the printing process lives
------------------
     ethr =  1.00E-06,  avg # of iterations =  7.0

     Threshold (ethr) on eigenvalues was too large:
     Diagonalizing with lowered threshold

     Davidson diagonalization with overlap

---- Real-time Memory Report at c_bands before calling an iterative solver
           638 MiB given to the printing process from OS
             0 MiB allocation reported by mallinfo(arena+hblkhd)
        324096 MiB available memory on the node where the printing process lives
------------------
     ethr =  2.66E-08,  avg # of iterations =  4.0

     negative rho (up, down):  4.396E-02 0.000E+00

     total cpu time spent up to now is      452.1 secs

     total energy              =    -111.14787468 Ry
     estimated scf accuracy    <       0.00000659 Ry

     iteration #  2     ecut=    60.00 Ry     beta= 0.40
     Davidson diagonalization with overlap

---- Real-time Memory Report at c_bands before calling an iterative solver
           638 MiB given to the printing process from OS
             0 MiB allocation reported by mallinfo(arena+hblkhd)
        324096 MiB available memory on the node where the printing process lives
------------------
     ethr =  2.64E-08,  avg # of iterations =  1.0

     negative rho (up, down):  4.398E-02 0.000E+00

     total cpu time spent up to now is      452.7 secs

     total energy              =    -111.14787466 Ry
     estimated scf accuracy    <       0.00000164 Ry

     iteration #  3     ecut=    60.00 Ry     beta= 0.40
     Davidson diagonalization with overlap

---- Real-time Memory Report at c_bands before calling an iterative solver
           638 MiB given to the printing process from OS
             0 MiB allocation reported by mallinfo(arena+hblkhd)
        324098 MiB available memory on the node where the printing process lives
------------------
     ethr =  6.55E-09,  avg # of iterations =  1.0

     negative rho (up, down):  4.398E-02 0.000E+00

     total cpu time spent up to now is      453.4 secs

     total energy              =    -111.14787475 Ry
     estimated scf accuracy    <       0.00000013 Ry

     iteration #  4     ecut=    60.00 Ry     beta= 0.40
     Davidson diagonalization with overlap

---- Real-time Memory Report at c_bands before calling an iterative solver
           638 MiB given to the printing process from OS
             0 MiB allocation reported by mallinfo(arena+hblkhd)
        324096 MiB available memory on the node where the printing process lives
------------------
     ethr =  5.14E-10,  avg # of iterations =  2.0

     negative rho (up, down):  4.397E-02 0.000E+00

     total cpu time spent up to now is      454.1 secs

     total energy              =    -111.14787476 Ry
     estimated scf accuracy    <       0.00000001 Ry

     iteration #  5     ecut=    60.00 Ry     beta= 0.40
     Davidson diagonalization with overlap

---- Real-time Memory Report at c_bands before calling an iterative solver
           638 MiB given to the printing process from OS
             0 MiB allocation reported by mallinfo(arena+hblkhd)
        324096 MiB available memory on the node where the printing process lives
------------------
     ethr =  5.15E-11,  avg # of iterations =  4.0

     negative rho (up, down):  4.396E-02 0.000E+00

     total cpu time spent up to now is      454.8 secs

     total energy              =    -111.14787476 Ry
     estimated scf accuracy    <          1.3E-09 Ry

     iteration #  6     ecut=    60.00 Ry     beta= 0.40
     Davidson diagonalization with overlap

---- Real-time Memory Report at c_bands before calling an iterative solver
           638 MiB given to the printing process from OS
             0 MiB allocation reported by mallinfo(arena+hblkhd)
        324102 MiB available memory on the node where the printing process lives
------------------
     ethr =  5.33E-12,  avg # of iterations =  3.0

     negative rho (up, down):  4.396E-02 0.000E+00

     total cpu time spent up to now is      455.5 secs

     total energy              =    -111.14787476 Ry
     estimated scf accuracy    <          1.9E-10 Ry

     iteration #  7     ecut=    60.00 Ry     beta= 0.40
     Davidson diagonalization with overlap

---- Real-time Memory Report at c_bands before calling an iterative solver
           638 MiB given to the printing process from OS
             0 MiB allocation reported by mallinfo(arena+hblkhd)
        324096 MiB available memory on the node where the printing process lives
------------------
     ethr =  7.77E-13,  avg # of iterations =  2.0

     negative rho (up, down):  4.396E-02 0.000E+00

     total cpu time spent up to now is      456.1 secs

     End of self-consistent calculation

          k = 0.0000 0.0000 0.0000 ( 95217 PWs)   bands (ev):

   -21.6154 -20.8067 -20.7899 -13.1377 -10.5265 -10.5079  -9.3673  -8.6981
    -8.6805  -8.2005  -8.1813  -7.8273  -5.0992  -1.1774  -0.5686  -0.4807
    -0.4014

     occupation numbers 
     1.0000   1.0000   1.0000   1.0000   1.0000   1.0000   1.0000   1.0000
     1.0000   1.0000   1.0000   1.0000   0.5000   0.0000   0.0000   0.0000
     0.0000

     the Fermi energy is    -5.0714 ev

!    total energy              =    -111.14787476 Ry
     estimated scf accuracy    <          1.1E-11 Ry
     smearing contrib. (-TS)   =      -0.00482420 Ry
     internal energy E=F+TS    =    -111.14305056 Ry

     The total energy is F=E-TS. E is the sum of the following terms:
     one-electron contribution =    -397.15305861 Ry
     hartree contribution      =     200.76611231 Ry
     xc contribution           =     -33.93348110 Ry
     ewald contribution        =     119.18154981 Ry
     Dispersion Correction     =      -0.00417298 Ry
     one-center paw contrib.   =       0.00000000 Ry
      -> PAW hartree energy AE =       0.00000000 Ry
      -> PAW hartree energy PS =       0.00000000 Ry
      -> PAW xc energy AE      =       0.00000000 Ry
      -> PAW xc energy PS      =       0.00000000 Ry
      -> total E_H with PAW    =     200.76611231 Ry
      -> total E_XC with PAW   =     -33.93348110 Ry

     convergence has been achieved in   7 iterations

     negative rho (up, down):  4.396E-02 0.000E+00

     Forces acting on atoms (cartesian axes, Ry/au):

     atom    1 type  3   force =    -0.00028470   -0.00159802   -0.00134867
     atom    2 type  4   force =     0.00102078   -0.00028660    0.00075682
     atom    3 type  4   force =    -0.00048215   -0.00018632    0.00056187
     atom    4 type  4   force =    -0.00025393    0.00207094    0.00002998
     The non-local contrib.  to forces
     atom    1 type  3   force =    -0.00745858    0.05965067    0.14676247
     atom    2 type  4   force =    -0.05515772   -0.19959041    0.00970953
     atom    3 type  4   force =     0.19592384    0.01221721   -0.06553735
     atom    4 type  4   force =    -0.12315532    0.11408908   -0.12417232
     The ionic contribution  to forces
     atom    1 type  3   force =     0.22371005   -1.28960204   -3.63814433
     atom    2 type  4   force =     2.15570439    5.99087546   -2.05776993
     atom    3 type  4   force =    -6.80744825   -0.81310336    1.43327988
     atom    4 type  4   force =     4.42803381   -3.88817005    4.26263438
     The local contribution  to forces
     atom    1 type  3   force =    -0.21678021    1.23220650    3.49968161
     atom    2 type  4   force =    -2.09948933   -5.79151451    2.04908143
     atom    3 type  4   force =     6.61105403    0.80078112   -1.36698932
     atom    4 type  4   force =    -4.30513222    3.77632233   -4.13819656
     The core correction contribution to forces
     atom    1 type  3   force =     0.00023945   -0.00382825   -0.00961666
     atom    2 type  4   force =    -0.00030534   -0.00062012   -0.00009656
     atom    3 type  4   force =     0.00067498    0.00007331   -0.00022517
     atom    4 type  4   force =    -0.00040928    0.00020793   -0.00039383
     The Hubbard contrib.    to forces
     atom    1 type  3   force =     0.00000000    0.00000000    0.00000000
     atom    2 type  4   force =     0.00000000    0.00000000    0.00000000
     atom    3 type  4   force =     0.00000000    0.00000000    0.00000000
     atom    4 type  4   force =     0.00000000    0.00000000    0.00000000
     The SCF correction term to forces
     atom    1 type  3   force =     0.00000003    0.00000080   -0.00000079
     atom    2 type  4   force =    -0.00000148   -0.00000243   -0.00000142
     atom    3 type  4   force =     0.00000020    0.00000438   -0.00000112
     atom    4 type  4   force =     0.00000219    0.00000003   -0.00000394

     Dispersion contribution to forces:
     atom    1 type  3   force =     0.00000588   -0.00002628   -0.00003096
     atom    2 type  4   force =     0.00027157    0.00056482   -0.00016623
     atom    3 type  4   force =    -0.00068565   -0.00015957    0.00003494
     atom    4 type  4   force =     0.00040819   -0.00037897    0.00016224

     Total force =     0.003330     Total SCF correction =     0.000007

     Total Dispersion Force =     0.001120


     Computing stress (Cartesian axis) and pressure


     negative rho (up, down):  4.396E-02 0.000E+00
          total   stress  (Ry/bohr**3)                   (kbar)     P=       -0.01
   0.00000009   0.00000022  -0.00000005            0.01        0.03       -0.01
   0.00000022  -0.00000026   0.00000019            0.03       -0.04        0.03
  -0.00000005   0.00000019   0.00000002           -0.01        0.03        0.00

     kinetic stress (kbar)    145.54     -0.04     -0.36
                               -0.04    146.35      2.66
                               -0.36      2.66    151.69

     local   stress (kbar)  -1969.16     -6.02    -16.49
                               -6.02  -2040.82    101.91
                              -16.49    101.91   1359.82

     nonloc. stress (kbar)    136.31      0.02      0.02
                                0.02    136.20     -0.23
                                0.02     -0.23    135.72

     hartree stress (kbar)    935.01      2.47      6.62
                                2.47    972.80    -39.42
                                6.62    -39.42   -691.08

     exc-cor stress (kbar)     43.46      0.00      0.01
                                0.00     43.44     -0.05
                                0.01     -0.05     43.34

     corecor stress (kbar)    -90.35     -0.00     -0.00
                               -0.00    -90.33      0.03
                               -0.00      0.03    -90.27

     ewald   stress (kbar)    799.19      3.59     10.20
                                3.59    832.32    -64.87
                               10.20    -64.87   -909.21

     hubbard stress (kbar)      0.00      0.00      0.00
                                0.00      0.00      0.00
                                0.00      0.00      0.00

     DFT-D   stress (kbar)      0.02      0.00      0.00
                                0.00      0.01     -0.01
                                0.00     -0.01      0.00

     XDM     stress (kbar)      0.00      0.00      0.00
                                0.00      0.00      0.00
                                0.00      0.00      0.00

     dft-nl  stress (kbar)      0.00      0.00      0.00
                                0.00      0.00      0.00
                                0.00      0.00      0.00

     TS-vdW  stress (kbar)      0.00      0.00      0.00
                                0.00      0.00      0.00
                                0.00      0.00      0.00


                                0.00      0.00      0.00
                                0.00      0.00      0.00


                                0.00      0.00      0.00

     Energy error            =      2.5E-05 Ry
     Gradient error          =      2.1E-03 Ry/Bohr

     number of scf cycles    =  35
     number of bfgs steps    =  34

     energy             old  =    -111.1478495936 Ry
     energy             new  =    -111.1478747587 Ry

     CASE: energy            _new < energy            _old

     new trust radius        =       0.0289637482 bohr
     new conv_thr            =       0.0000000002 Ry


ATOMIC_POSITIONS (angstrom)
Si            5.0425965456        4.5087705957       20.1676677955
Cl            5.6163640205        6.4848291454       20.1165659944
Cl            3.1030408404        4.3909003808       20.8426077915
Cl            6.2699985936        3.4445498781       21.4344384185



     Writing output data file ./out/aiida.save/
     NEW-OLD atomic charge density approx. for the potential

     negative rho (up, down):  4.408E-02 0.000E+00

     total cpu time spent up to now is      463.9 secs

     Self-consistent Calculation

     iteration #  1     ecut=    60.00 Ry     beta= 0.40
     Davidson diagonalization with overlap

---- Real-time Memory Report at c_bands before calling an iterative solver
           638 MiB given to the printing process from OS
             0 MiB allocation reported by mallinfo(arena+hblkhd)
        324101 MiB available memory on the node where the printing process lives
------------------
     ethr =  1.00E-06,  avg # of iterations =  7.0

     Threshold (ethr) on eigenvalues was too large:
     Diagonalizing with lowered threshold

     Davidson diagonalization with overlap

---- Real-time Memory Report at c_bands before calling an iterative solver
           638 MiB given to the printing process from OS
             0 MiB allocation reported by mallinfo(arena+hblkhd)
        324092 MiB available memory on the node where the printing process lives
------------------
     ethr =  6.05E-08,  avg # of iterations =  4.0

     negative rho (up, down):  4.407E-02 0.000E+00

     total cpu time spent up to now is      466.9 secs

     total energy              =    -111.14790496 Ry
     estimated scf accuracy    <       0.00001487 Ry

     iteration #  2     ecut=    60.00 Ry     beta= 0.40
     Davidson diagonalization with overlap

---- Real-time Memory Report at c_bands before calling an iterative solver
           638 MiB given to the printing process from OS
             0 MiB allocation reported by mallinfo(arena+hblkhd)
        324091 MiB available memory on the node where the printing process lives
------------------
     ethr =  5.95E-08,  avg # of iterations =  1.0

     negative rho (up, down):  4.412E-02 0.000E+00

     total cpu time spent up to now is      467.5 secs

     total energy              =    -111.14790500 Ry
     estimated scf accuracy    <       0.00000375 Ry

     iteration #  3     ecut=    60.00 Ry     beta= 0.40
     Davidson diagonalization with overlap

---- Real-time Memory Report at c_bands before calling an iterative solver
           638 MiB given to the printing process from OS
             0 MiB allocation reported by mallinfo(arena+hblkhd)
        324091 MiB available memory on the node where the printing process lives
------------------
     ethr =  1.50E-08,  avg # of iterations =  1.0

     negative rho (up, down):  4.411E-02 0.000E+00

     total cpu time spent up to now is      468.2 secs

     total energy              =    -111.14790524 Ry
     estimated scf accuracy    <       0.00000029 Ry

     iteration #  4     ecut=    60.00 Ry     beta= 0.40
     Davidson diagonalization with overlap

---- Real-time Memory Report at c_bands before calling an iterative solver
           638 MiB given to the printing process from OS
             0 MiB allocation reported by mallinfo(arena+hblkhd)
        324090 MiB available memory on the node where the printing process lives
------------------
     ethr =  1.15E-09,  avg # of iterations =  4.0

     negative rho (up, down):  4.409E-02 0.000E+00

     total cpu time spent up to now is      468.8 secs

     total energy              =    -111.14790532 Ry
     estimated scf accuracy    <       0.00000003 Ry

     iteration #  5     ecut=    60.00 Ry     beta= 0.40
     Davidson diagonalization with overlap

---- Real-time Memory Report at c_bands before calling an iterative solver
           638 MiB given to the printing process from OS
             0 MiB allocation reported by mallinfo(arena+hblkhd)
        324093 MiB available memory on the node where the printing process lives
------------------
     ethr =  1.36E-10,  avg # of iterations =  4.0

     negative rho (up, down):  4.407E-02 0.000E+00

     total cpu time spent up to now is      469.5 secs

     total energy              =    -111.14790532 Ry
     estimated scf accuracy    <          3.7E-09 Ry

     iteration #  6     ecut=    60.00 Ry     beta= 0.40
     Davidson diagonalization with overlap

---- Real-time Memory Report at c_bands before calling an iterative solver
           638 MiB given to the printing process from OS
             0 MiB allocation reported by mallinfo(arena+hblkhd)
        324090 MiB available memory on the node where the printing process lives
------------------
     ethr =  1.48E-11,  avg # of iterations =  2.0

     negative rho (up, down):  4.406E-02 0.000E+00

     total cpu time spent up to now is      470.2 secs

     total energy              =    -111.14790533 Ry
     estimated scf accuracy    <          7.6E-10 Ry

     iteration #  7     ecut=    60.00 Ry     beta= 0.40
     Davidson diagonalization with overlap

---- Real-time Memory Report at c_bands before calling an iterative solver
           638 MiB given to the printing process from OS
             0 MiB allocation reported by mallinfo(arena+hblkhd)
        324092 MiB available memory on the node where the printing process lives
------------------
     ethr =  3.04E-12,  avg # of iterations =  2.0

     negative rho (up, down):  4.406E-02 0.000E+00

     total cpu time spent up to now is      470.9 secs

     End of self-consistent calculation

          k = 0.0000 0.0000 0.0000 ( 95217 PWs)   bands (ev):

   -21.6147 -20.8045 -20.7910 -13.1377 -10.5243 -10.5091  -9.3669  -8.6968
    -8.6812  -8.1982  -8.1824  -7.8273  -5.1021  -1.1755  -0.5657  -0.4872
    -0.4021

     occupation numbers 
     1.0000   1.0000   1.0000   1.0000   1.0000   1.0000   1.0000   1.0000
     1.0000   1.0000   1.0000   1.0000   0.5000   0.0000   0.0000   0.0000
     0.0000

     the Fermi energy is    -5.0742 ev

!    total energy              =    -111.14790532 Ry
     estimated scf accuracy    <          2.7E-11 Ry
     smearing contrib. (-TS)   =      -0.00482420 Ry
     internal energy E=F+TS    =    -111.14308112 Ry

     The total energy is F=E-TS. E is the sum of the following terms:
     one-electron contribution =    -397.05156087 Ry
     hartree contribution      =     200.71537976 Ry
     xc contribution           =     -33.93308245 Ry
     ewald contribution        =     119.13035465 Ry
     Dispersion Correction     =      -0.00417221 Ry
     one-center paw contrib.   =       0.00000000 Ry
      -> PAW hartree energy AE =       0.00000000 Ry
      -> PAW hartree energy PS =       0.00000000 Ry
      -> PAW xc energy AE      =       0.00000000 Ry
      -> PAW xc energy PS      =       0.00000000 Ry
      -> total E_H with PAW    =     200.71537976 Ry
      -> total E_XC with PAW   =     -33.93308245 Ry

     convergence has been achieved in   7 iterations

     negative rho (up, down):  4.406E-02 0.000E+00

     Forces acting on atoms (cartesian axes, Ry/au):

     atom    1 type  3   force =     0.00003084   -0.00145166   -0.00111807
     atom    2 type  4   force =     0.00074299   -0.00043622    0.00068411
     atom    3 type  4   force =    -0.00039798   -0.00007051    0.00051734
     atom    4 type  4   force =    -0.00037584    0.00195840   -0.00008339
     The non-local contrib.  to forces
     atom    1 type  3   force =    -0.00776671    0.06082660    0.14621923
     atom    2 type  4   force =    -0.05549637   -0.19967023    0.01082914
     atom    3 type  4   force =     0.19595991    0.01257093   -0.06557343
     atom    4 type  4   force =    -0.12369389    0.11236929   -0.12534583
     The ionic contribution  to forces
     atom    1 type  3   force =     0.22320821   -1.31153463   -3.62988508
     atom    2 type  4   force =     2.14267986    5.98940134   -2.11795723
     atom    3 type  4   force =    -6.80301645   -0.82173388    1.43559754
     atom    4 type  4   force =     4.43712839   -3.85613283    4.31224477
     The local contribution  to forces
     atom    1 type  3   force =    -0.21569151    1.25320088    3.49215134
     atom    2 type  4   force =    -2.08641329   -5.79011874    2.10807528
     atom    3 type  4   force =     6.60666343    0.80917640   -1.36931286
     atom    4 type  4   force =    -4.31382227    3.74589338   -4.18676991
     The core correction contribution to forces
     atom    1 type  3   force =     0.00027610   -0.00392017   -0.00957140
     atom    2 type  4   force =    -0.00028366   -0.00060978   -0.00008575
     atom    3 type  4   force =     0.00067248    0.00006591   -0.00022419
     atom    4 type  4   force =    -0.00040025    0.00021108   -0.00038771
     The Hubbard contrib.    to forces
     atom    1 type  3   force =     0.00000000    0.00000000    0.00000000
     atom    2 type  4   force =     0.00000000    0.00000000    0.00000000
     atom    3 type  4   force =     0.00000000    0.00000000    0.00000000
     atom    4 type  4   force =     0.00000000    0.00000000    0.00000000
     The SCF correction term to forces
     atom    1 type  3   force =    -0.00000016    0.00000185   -0.00000141
     atom    2 type  4   force =    -0.00000139   -0.00000648   -0.00000550
     atom    3 type  4   force =    -0.00000106    0.00000345   -0.00000284
     atom    4 type  4   force =     0.00000236    0.00000366    0.00000506

     Dispersion contribution to forces:
     atom    1 type  3   force =     0.00000583   -0.00002669   -0.00003095
     atom    2 type  4   force =     0.00025877    0.00056719   -0.00017202
     atom    3 type  4   force =    -0.00067535   -0.00015382    0.00003293
     atom    4 type  4   force =     0.00041075   -0.00038668    0.00017004

     Total force =     0.002997     Total SCF correction =     0.000012

     Total Dispersion Force =     0.001117


     Computing stress (Cartesian axis) and pressure


     negative rho (up, down):  4.406E-02 0.000E+00
          total   stress  (Ry/bohr**3)                   (kbar)     P=       -0.01
   0.00000005   0.00000019  -0.00000006            0.01        0.03       -0.01
   0.00000019  -0.00000029   0.00000019            0.03       -0.04        0.03
  -0.00000006   0.00000019   0.00000001           -0.01        0.03        0.00

     kinetic stress (kbar)    145.52     -0.06     -0.38
                               -0.06    146.41      2.69
                               -0.38      2.69    151.64

     local   stress (kbar)  -1968.93     -6.49    -17.02
                               -6.49  -2037.71    103.41
                              -17.02    103.41   1357.10

     nonloc. stress (kbar)    136.31      0.02      0.02
                                0.02    136.19     -0.23
                                0.02     -0.23    135.73

     hartree stress (kbar)    934.87      2.64      6.82
                                2.64    971.48    -40.01
                                6.82    -40.01   -689.93

     exc-cor stress (kbar)     43.46      0.00      0.01
                                0.00     43.44     -0.05
                                0.01     -0.05     43.34

     corecor stress (kbar)    -90.35     -0.00     -0.00
                               -0.00    -90.33      0.03
                               -0.00      0.03    -90.27

     ewald   stress (kbar)    799.11      3.92     10.53
                                3.92    830.48    -65.80
                               10.53    -65.80   -907.61

     hubbard stress (kbar)      0.00      0.00      0.00
                                0.00      0.00      0.00
                                0.00      0.00      0.00

     DFT-D   stress (kbar)      0.02      0.00      0.00
                                0.00      0.01     -0.01
                                0.00     -0.01      0.00

     XDM     stress (kbar)      0.00      0.00      0.00
                                0.00      0.00      0.00
                                0.00      0.00      0.00

     dft-nl  stress (kbar)      0.00      0.00      0.00
                                0.00      0.00      0.00
                                0.00      0.00      0.00

     TS-vdW  stress (kbar)      0.00      0.00      0.00
                                0.00      0.00      0.00
                                0.00      0.00      0.00


                                0.00      0.00      0.00
                                0.00      0.00      0.00


                                0.00      0.00      0.00

     Energy error            =      3.1E-05 Ry
     Gradient error          =      2.0E-03 Ry/Bohr

     number of scf cycles    =  36
     number of bfgs steps    =  35

     energy             old  =    -111.1478747587 Ry
     energy             new  =    -111.1479053221 Ry

     CASE: energy            _new < energy            _old

     new trust radius        =       0.0434456224 bohr
     new conv_thr            =       0.0000000002 Ry


ATOMIC_POSITIONS (angstrom)
Si            5.0425896041        4.5034351490       20.1692750650
Cl            5.6123478728        6.4807221376       20.0977986259
Cl            3.1029174783        4.3842230439       20.8439085308
Cl            6.2741450448        3.4606696695       21.4502977782



     Writing output data file ./out/aiida.save/
     NEW-OLD atomic charge density approx. for the potential

     negative rho (up, down):  4.416E-02 0.000E+00

     total cpu time spent up to now is      478.7 secs

     Self-consistent Calculation

     iteration #  1     ecut=    60.00 Ry     beta= 0.40
     Davidson diagonalization with overlap

---- Real-time Memory Report at c_bands before calling an iterative solver
           638 MiB given to the printing process from OS
             0 MiB allocation reported by mallinfo(arena+hblkhd)
        324098 MiB available memory on the node where the printing process lives
------------------
     ethr =  1.00E-06,  avg # of iterations =  9.0

     negative rho (up, down):  4.414E-02 0.000E+00

     total cpu time spent up to now is      479.5 secs

     total energy              =    -111.14794140 Ry
     estimated scf accuracy    <       0.00003437 Ry

     iteration #  2     ecut=    60.00 Ry     beta= 0.40
     Davidson diagonalization with overlap

---- Real-time Memory Report at c_bands before calling an iterative solver
           638 MiB given to the printing process from OS
             0 MiB allocation reported by mallinfo(arena+hblkhd)
        324091 MiB available memory on the node where the printing process lives
------------------
     ethr =  1.37E-07,  avg # of iterations =  2.0

     negative rho (up, down):  4.423E-02 0.000E+00

     total cpu time spent up to now is      480.1 secs

     total energy              =    -111.14794222 Ry
     estimated scf accuracy    <       0.00000869 Ry

     iteration #  3     ecut=    60.00 Ry     beta= 0.40
     Davidson diagonalization with overlap

---- Real-time Memory Report at c_bands before calling an iterative solver
           638 MiB given to the printing process from OS
             0 MiB allocation reported by mallinfo(arena+hblkhd)
        324091 MiB available memory on the node where the printing process lives
------------------
     ethr =  3.47E-08,  avg # of iterations =  2.0

     negative rho (up, down):  4.421E-02 0.000E+00

     total cpu time spent up to now is      480.8 secs

     total energy              =    -111.14794316 Ry
     estimated scf accuracy    <       0.00000067 Ry

     iteration #  4     ecut=    60.00 Ry     beta= 0.40
     Davidson diagonalization with overlap

---- Real-time Memory Report at c_bands before calling an iterative solver
           638 MiB given to the printing process from OS
             0 MiB allocation reported by mallinfo(arena+hblkhd)
        324091 MiB available memory on the node where the printing process lives
------------------
     ethr =  2.66E-09,  avg # of iterations =  5.0

     negative rho (up, down):  4.418E-02 0.000E+00

     total cpu time spent up to now is      481.5 secs

     total energy              =    -111.14794350 Ry
     estimated scf accuracy    <       0.00000009 Ry

     iteration #  5     ecut=    60.00 Ry     beta= 0.40
     Davidson diagonalization with overlap

---- Real-time Memory Report at c_bands before calling an iterative solver
           638 MiB given to the printing process from OS
             0 MiB allocation reported by mallinfo(arena+hblkhd)
        324092 MiB available memory on the node where the printing process lives
------------------
     ethr =  3.75E-10,  avg # of iterations =  2.0

     negative rho (up, down):  4.414E-02 0.000E+00

     total cpu time spent up to now is      482.2 secs

     total energy              =    -111.14794351 Ry
     estimated scf accuracy    <          9.7E-09 Ry

     iteration #  6     ecut=    60.00 Ry     beta= 0.40
     Davidson diagonalization with overlap

---- Real-time Memory Report at c_bands before calling an iterative solver
           638 MiB given to the printing process from OS
             0 MiB allocation reported by mallinfo(arena+hblkhd)
        324092 MiB available memory on the node where the printing process lives
------------------
     ethr =  3.89E-11,  avg # of iterations =  4.0

     negative rho (up, down):  4.413E-02 0.000E+00

     total cpu time spent up to now is      482.9 secs

     total energy              =    -111.14794350 Ry
     estimated scf accuracy    <          2.2E-09 Ry

     iteration #  7     ecut=    60.00 Ry     beta= 0.40
     Davidson diagonalization with overlap

---- Real-time Memory Report at c_bands before calling an iterative solver
           638 MiB given to the printing process from OS
             0 MiB allocation reported by mallinfo(arena+hblkhd)
        324092 MiB available memory on the node where the printing process lives
------------------
     ethr =  8.74E-12,  avg # of iterations =  2.0

     negative rho (up, down):  4.412E-02 0.000E+00

     total cpu time spent up to now is      483.6 secs

     total energy              =    -111.14794351 Ry
     estimated scf accuracy    <          2.4E-10 Ry

     iteration #  8     ecut=    60.00 Ry     beta= 0.40
     Davidson diagonalization with overlap

---- Real-time Memory Report at c_bands before calling an iterative solver
           638 MiB given to the printing process from OS
             0 MiB allocation reported by mallinfo(arena+hblkhd)
        324092 MiB available memory on the node where the printing process lives
------------------
     ethr =  9.46E-13,  avg # of iterations =  4.0

     negative rho (up, down):  4.412E-02 0.000E+00

     total cpu time spent up to now is      484.3 secs

     End of self-consistent calculation

          k = 0.0000 0.0000 0.0000 ( 95217 PWs)   bands (ev):

   -21.6134 -20.8019 -20.7920 -13.1377 -10.5214 -10.5104  -9.3662  -8.6951
    -8.6819  -8.1955  -8.1838  -7.8273  -5.1063  -1.1737  -0.5625  -0.4958
    -0.4030

     occupation numbers 
     1.0000   1.0000   1.0000   1.0000   1.0000   1.0000   1.0000   1.0000
     1.0000   1.0000   1.0000   1.0000   0.5000   0.0000   0.0000   0.0000
     0.0000

     the Fermi energy is    -5.0784 ev

!    total energy              =    -111.14794352 Ry
     estimated scf accuracy    <          1.6E-11 Ry
     smearing contrib. (-TS)   =      -0.00482420 Ry
     internal energy E=F+TS    =    -111.14311932 Ry

     The total energy is F=E-TS. E is the sum of the following terms:
     one-electron contribution =    -396.89197896 Ry
     hartree contribution      =     200.63556919 Ry
     xc contribution           =     -33.93240497 Ry
     ewald contribution        =     119.04986645 Ry
     Dispersion Correction     =      -0.00417104 Ry
     one-center paw contrib.   =       0.00000000 Ry
      -> PAW hartree energy AE =       0.00000000 Ry
      -> PAW hartree energy PS =       0.00000000 Ry
      -> PAW xc energy AE      =       0.00000000 Ry
      -> PAW xc energy PS      =       0.00000000 Ry
      -> total E_H with PAW    =     200.63556919 Ry
      -> total E_XC with PAW   =     -33.93240497 Ry

     convergence has been achieved in   8 iterations

     negative rho (up, down):  4.412E-02 0.000E+00

     Forces acting on atoms (cartesian axes, Ry/au):

     atom    1 type  3   force =     0.00047755   -0.00121607   -0.00078445
     atom    2 type  4   force =     0.00037119   -0.00071375    0.00060662
     atom    3 type  4   force =    -0.00027793    0.00007842    0.00045430
     atom    4 type  4   force =    -0.00057081    0.00185140   -0.00027647
     The non-local contrib.  to forces
     atom    1 type  3   force =    -0.00820022    0.06261648    0.14543561
     atom    2 type  4   force =    -0.05581390   -0.19986254    0.01261422
     atom    3 type  4   force =     0.19601989    0.01303414   -0.06560676
     atom    4 type  4   force =    -0.12443855    0.10989771   -0.12709380
     The ionic contribution  to forces
     atom    1 type  3   force =     0.22500841   -1.34467490   -3.61581310
     atom    2 type  4   force =     2.12199241    5.98595005   -2.20941506
     atom    3 type  4   force =    -6.79670898   -0.83472031    1.43890004
     atom    4 type  4   force =     4.44970816   -3.80655484    4.38632812
     The local contribution  to forces
     atom    1 type  3   force =    -0.21665515    1.28492932    3.47913587
     atom    2 type  4   force =    -2.06579363   -5.78677822    2.19766100
     atom    3 type  4   force =     6.60040654    0.82184956   -1.37264622
     atom    4 type  4   force =    -4.32586766    3.69868888   -4.25931545
     The core correction contribution to forces
     atom    1 type  3   force =     0.00031998   -0.00406048   -0.00951144
     atom    2 type  4   force =    -0.00025412   -0.00059079   -0.00007131
     atom    3 type  4   force =     0.00066896    0.00005629   -0.00022250
     atom    4 type  4   force =    -0.00038645    0.00021172   -0.00037774
     The Hubbard contrib.    to forces
     atom    1 type  3   force =     0.00000000    0.00000000    0.00000000
     atom    2 type  4   force =     0.00000000    0.00000000    0.00000000
     atom    3 type  4   force =     0.00000000    0.00000000    0.00000000
     atom    4 type  4   force =     0.00000000    0.00000000    0.00000000
     The SCF correction term to forces
     atom    1 type  3   force =    -0.00000005    0.00000048   -0.00000057
     atom    2 type  4   force =    -0.00000041   -0.00000063   -0.00000265
     atom    3 type  4   force =    -0.00000162    0.00000501   -0.00000067
     atom    4 type  4   force =     0.00000117    0.00000178    0.00000197

     Dispersion contribution to forces:
     atom    1 type  3   force =     0.00000577   -0.00002730   -0.00003093
     atom    2 type  4   force =     0.00024205    0.00056806   -0.00017968
     atom    3 type  4   force =    -0.00066152   -0.00014660    0.00003029
     atom    4 type  4   force =     0.00041371   -0.00039416    0.00018032

     Total force =     0.002731     Total SCF correction =     0.000007

     Total Dispersion Force =     0.001111


     Computing stress (Cartesian axis) and pressure


     negative rho (up, down):  4.412E-02 0.000E+00
          total   stress  (Ry/bohr**3)                   (kbar)     P=       -0.02
  -0.00000000   0.00000014  -0.00000007           -0.00        0.02       -0.01
   0.00000014  -0.00000033   0.00000019            0.02       -0.05        0.03
  -0.00000007   0.00000019  -0.00000001           -0.01        0.03       -0.00

     kinetic stress (kbar)    145.50     -0.11     -0.40
                               -0.11    146.48      2.73
                               -0.40      2.73    151.56

     local   stress (kbar)  -1968.47     -7.19    -17.81
                               -7.19  -2033.02    105.66
                              -17.81    105.66   1352.92

     nonloc. stress (kbar)    136.30      0.02      0.02
                                0.02    136.18     -0.24
                                0.02     -0.24    135.73

     hartree stress (kbar)    934.61      2.89      7.13
                                2.89    969.48    -40.90
                                7.13    -40.90   -688.16

     exc-cor stress (kbar)     43.46      0.00      0.01
                                0.00     43.44     -0.05
                                0.01     -0.05     43.34

     corecor stress (kbar)    -90.35     -0.00     -0.00
                               -0.00    -90.33      0.03
                               -0.00      0.03    -90.27

     ewald   stress (kbar)    798.92      4.40     11.03
                                4.40    827.71    -67.20
                               11.03    -67.20   -905.14

     hubbard stress (kbar)      0.00      0.00      0.00
                                0.00      0.00      0.00
                                0.00      0.00      0.00

     DFT-D   stress (kbar)      0.02      0.00      0.00
                                0.00      0.01     -0.01
                                0.00     -0.01      0.00

     XDM     stress (kbar)      0.00      0.00      0.00
                                0.00      0.00      0.00
                                0.00      0.00      0.00

     dft-nl  stress (kbar)      0.00      0.00      0.00
                                0.00      0.00      0.00
                                0.00      0.00      0.00

     TS-vdW  stress (kbar)      0.00      0.00      0.00
                                0.00      0.00      0.00
                                0.00      0.00      0.00


                                0.00      0.00      0.00
                                0.00      0.00      0.00


                                0.00      0.00      0.00

     Energy error            =      3.8E-05 Ry
     Gradient error          =      1.9E-03 Ry/Bohr

     number of scf cycles    =  37
     number of bfgs steps    =  36

     energy             old  =    -111.1479053221 Ry
     energy             new  =    -111.1479435159 Ry

     CASE: energy            _new < energy            _old

     new trust radius        =       0.0651684335 bohr
     new conv_thr            =       0.0000000002 Ry


ATOMIC_POSITIONS (angstrom)
Si            5.0428624645        4.4953645399       20.1717833575
Cl            5.6060378673        6.4743345113       20.0696427443
Cl            3.1029565180        4.3743540430       20.8458607964
Cl            6.2801431503        3.4849969058       21.4739931016



     Writing output data file ./out/aiida.save/
     NEW-OLD atomic charge density approx. for the potential

     negative rho (up, down):  4.423E-02 0.000E+00

     total cpu time spent up to now is      492.0 secs

     Self-consistent Calculation

     iteration #  1     ecut=    60.00 Ry     beta= 0.40
     Davidson diagonalization with overlap

---- Real-time Memory Report at c_bands before calling an iterative solver
           638 MiB given to the printing process from OS
             0 MiB allocation reported by mallinfo(arena+hblkhd)
        324092 MiB available memory on the node where the printing process lives
------------------
     ethr =  1.00E-06,  avg # of iterations = 10.0

     negative rho (up, down):  4.419E-02 0.000E+00

     total cpu time spent up to now is      492.9 secs

     total energy              =    -111.14798775 Ry
     estimated scf accuracy    <       0.00007785 Ry

     iteration #  2     ecut=    60.00 Ry     beta= 0.40
     Davidson diagonalization with overlap

---- Real-time Memory Report at c_bands before calling an iterative solver
           638 MiB given to the printing process from OS
             0 MiB allocation reported by mallinfo(arena+hblkhd)
        324088 MiB available memory on the node where the printing process lives
------------------
     ethr =  3.11E-07,  avg # of iterations =  1.0

     negative rho (up, down):  4.434E-02 0.000E+00

     total cpu time spent up to now is      493.5 secs

     total energy              =    -111.14798859 Ry
     estimated scf accuracy    <       0.00001939 Ry

     iteration #  3     ecut=    60.00 Ry     beta= 0.40
     Davidson diagonalization with overlap

---- Real-time Memory Report at c_bands before calling an iterative solver
           638 MiB given to the printing process from OS
             0 MiB allocation reported by mallinfo(arena+hblkhd)
        324087 MiB available memory on the node where the printing process lives
------------------
     ethr =  7.76E-08,  avg # of iterations =  2.0

     negative rho (up, down):  4.432E-02 0.000E+00

     total cpu time spent up to now is      494.2 secs

     total energy              =    -111.14799019 Ry
     estimated scf accuracy    <       0.00000163 Ry

     iteration #  4     ecut=    60.00 Ry     beta= 0.40
     Davidson diagonalization with overlap

---- Real-time Memory Report at c_bands before calling an iterative solver
           638 MiB given to the printing process from OS
             0 MiB allocation reported by mallinfo(arena+hblkhd)
        324089 MiB available memory on the node where the printing process lives
------------------
     ethr =  6.50E-09,  avg # of iterations =  5.0

     negative rho (up, down):  4.426E-02 0.000E+00

     total cpu time spent up to now is      494.9 secs

     total energy              =    -111.14799064 Ry
     estimated scf accuracy    <       0.00000023 Ry

     iteration #  5     ecut=    60.00 Ry     beta= 0.40
     Davidson diagonalization with overlap

---- Real-time Memory Report at c_bands before calling an iterative solver
           638 MiB given to the printing process from OS
             0 MiB allocation reported by mallinfo(arena+hblkhd)
        324089 MiB available memory on the node where the printing process lives
------------------
     ethr =  9.05E-10,  avg # of iterations =  2.0

     negative rho (up, down):  4.420E-02 0.000E+00

     total cpu time spent up to now is      495.6 secs

     total energy              =    -111.14799067 Ry
     estimated scf accuracy    <       0.00000002 Ry

     iteration #  6     ecut=    60.00 Ry     beta= 0.40
     Davidson diagonalization with overlap

---- Real-time Memory Report at c_bands before calling an iterative solver
           638 MiB given to the printing process from OS
             0 MiB allocation reported by mallinfo(arena+hblkhd)
        324089 MiB available memory on the node where the printing process lives
------------------
     ethr =  8.30E-11,  avg # of iterations =  4.0

     negative rho (up, down):  4.417E-02 0.000E+00

     total cpu time spent up to now is      496.3 secs

     total energy              =    -111.14799067 Ry
     estimated scf accuracy    <          4.9E-09 Ry

     iteration #  7     ecut=    60.00 Ry     beta= 0.40
     Davidson diagonalization with overlap

---- Real-time Memory Report at c_bands before calling an iterative solver
           638 MiB given to the printing process from OS
             0 MiB allocation reported by mallinfo(arena+hblkhd)
        324088 MiB available memory on the node where the printing process lives
------------------
     ethr =  1.98E-11,  avg # of iterations =  2.0

     negative rho (up, down):  4.415E-02 0.000E+00

     total cpu time spent up to now is      497.0 secs

     total energy              =    -111.14799068 Ry
     estimated scf accuracy    <          2.7E-10 Ry

     iteration #  8     ecut=    60.00 Ry     beta= 0.40
     Davidson diagonalization with overlap

---- Real-time Memory Report at c_bands before calling an iterative solver
           638 MiB given to the printing process from OS
             0 MiB allocation reported by mallinfo(arena+hblkhd)
        324088 MiB available memory on the node where the printing process lives
------------------
     ethr =  1.08E-12,  avg # of iterations =  5.0

     negative rho (up, down):  4.414E-02 0.000E+00

     total cpu time spent up to now is      497.7 secs

     End of self-consistent calculation

          k = 0.0000 0.0000 0.0000 ( 95217 PWs)   bands (ev):

   -21.6112 -20.7999 -20.7911 -13.1376 -10.5185 -10.5106  -9.3649  -8.6926
    -8.6827  -8.1923  -8.1847  -7.8271  -5.1131  -1.1715  -0.5591  -0.5079
    -0.4045

     occupation numbers 
     1.0000   1.0000   1.0000   1.0000   1.0000   1.0000   1.0000   1.0000
     1.0000   1.0000   1.0000   1.0000   0.5000   0.0000   0.0000   0.0000
     0.0000

     the Fermi energy is    -5.0853 ev

!    total energy              =    -111.14799069 Ry
     estimated scf accuracy    <          3.0E-11 Ry
     smearing contrib. (-TS)   =      -0.00482420 Ry
     internal energy E=F+TS    =    -111.14316650 Ry

     The total energy is F=E-TS. E is the sum of the following terms:
     one-electron contribution =    -396.64530629 Ry
     hartree contribution      =     200.51224043 Ry
     xc contribution           =     -33.93128348 Ry
     ewald contribution        =     118.92535190 Ry
     Dispersion Correction     =      -0.00416906 Ry
     one-center paw contrib.   =       0.00000000 Ry
      -> PAW hartree energy AE =       0.00000000 Ry
      -> PAW hartree energy PS =       0.00000000 Ry
      -> PAW xc energy AE      =       0.00000000 Ry
      -> PAW xc energy PS      =       0.00000000 Ry
      -> total E_H with PAW    =     200.51224043 Ry
      -> total E_XC with PAW   =     -33.93128348 Ry

     convergence has been achieved in   8 iterations

     negative rho (up, down):  4.414E-02 0.000E+00

     Forces acting on atoms (cartesian axes, Ry/au):

     atom    1 type  3   force =     0.00113694   -0.00080706   -0.00025212
     atom    2 type  4   force =    -0.00015412   -0.00119880    0.00050489
     atom    3 type  4   force =    -0.00010274    0.00027486    0.00034534
     atom    4 type  4   force =    -0.00088008    0.00173099   -0.00059812
     The non-local contrib.  to forces
     atom    1 type  3   force =    -0.00883466    0.06529208    0.14423367
     atom    2 type  4   force =    -0.05614827   -0.20021384    0.01531850
     atom    3 type  4   force =     0.19610831    0.01364614   -0.06568327
     atom    4 type  4   force =    -0.12549313    0.10620902   -0.12972209
     The ionic contribution  to forces
     atom    1 type  3   force =     0.23000754   -1.39460374   -3.59373725
     atom    2 type  4   force =     2.09038216    5.97885554   -2.34609889
     atom    3 type  4   force =    -6.78750574   -0.85416711    1.44377870
     atom    4 type  4   force =     4.46711604   -3.73008469    4.49605744
     The local contribution  to forces
     atom    1 type  3   force =    -0.22041749    1.33280360    3.45870464
     atom    2 type  4   force =    -2.03439487   -5.77985150    2.33152743
     atom    3 type  4   force =     6.59127722    0.84088578   -1.37755301
     atom    4 type  4   force =    -4.34255667    3.62580123   -4.36676392
     The core correction contribution to forces
     atom    1 type  3   force =     0.00037694   -0.00426941   -0.00942112
     atom    2 type  4   force =    -0.00021192   -0.00055734   -0.00005081
     atom    3 type  4   force =     0.00066367    0.00004378   -0.00021870
     atom    4 type  4   force =    -0.00036452    0.00021162   -0.00035993
     The Hubbard contrib.    to forces
     atom    1 type  3   force =     0.00000000    0.00000000    0.00000000
     atom    2 type  4   force =     0.00000000    0.00000000    0.00000000
     atom    3 type  4   force =     0.00000000    0.00000000    0.00000000
     atom    4 type  4   force =     0.00000000    0.00000000    0.00000000
     The SCF correction term to forces
     atom    1 type  3   force =     0.00000014   -0.00000073   -0.00000046
     atom    2 type  4   force =     0.00000101    0.00000134    0.00000001
     atom    3 type  4   force =    -0.00000259    0.00000384   -0.00000413
     atom    4 type  4   force =     0.00000168   -0.00000299   -0.00000403

     Dispersion contribution to forces:
     atom    1 type  3   force =     0.00000569   -0.00002821   -0.00003090
     atom    2 type  4   force =     0.00021898    0.00056766   -0.00019064
     atom    3 type  4   force =    -0.00064239   -0.00013691    0.00002644
     atom    4 type  4   force =     0.00041773   -0.00040254    0.00019510

     Total force =     0.002839     Total SCF correction =     0.000008

     Total Dispersion Force =     0.001102


     Computing stress (Cartesian axis) and pressure


     negative rho (up, down):  4.414E-02 0.000E+00
          total   stress  (Ry/bohr**3)                   (kbar)     P=       -0.03
  -0.00000008   0.00000008  -0.00000009           -0.01        0.01       -0.01
   0.00000008  -0.00000041   0.00000020            0.01       -0.06        0.03
  -0.00000009   0.00000020  -0.00000005           -0.01        0.03       -0.01

     kinetic stress (kbar)    145.47     -0.16     -0.42
                               -0.16    146.59      2.79
                               -0.42      2.79    151.45

     local   stress (kbar)  -1967.65     -8.24    -19.00
                               -8.24  -2025.90    108.92
                              -19.00    108.92   1346.49

     nonloc. stress (kbar)    136.30      0.02      0.03
                                0.02    136.17     -0.24
                                0.03     -0.24    135.74

     hartree stress (kbar)    934.17      3.28      7.60
                                3.28    966.44    -42.20
                                7.60    -42.20   -685.42

     exc-cor stress (kbar)     43.46      0.00      0.01
                                0.00     43.44     -0.06
                                0.01     -0.06     43.34

     corecor stress (kbar)    -90.35     -0.00     -0.00
                               -0.00    -90.33      0.03
                               -0.00      0.03    -90.27

     ewald   stress (kbar)    798.56      5.12     11.78
                                5.12    823.51    -69.22
                               11.78    -69.22   -901.34

     hubbard stress (kbar)      0.00      0.00      0.00
                                0.00      0.00      0.00
                                0.00      0.00      0.00

     DFT-D   stress (kbar)      0.02      0.00      0.00
                                0.00      0.01     -0.01
                                0.00     -0.01      0.00

     XDM     stress (kbar)      0.00      0.00      0.00
                                0.00      0.00      0.00
                                0.00      0.00      0.00

     dft-nl  stress (kbar)      0.00      0.00      0.00
                                0.00      0.00      0.00
                                0.00      0.00      0.00

     TS-vdW  stress (kbar)      0.00      0.00      0.00
                                0.00      0.00      0.00
                                0.00      0.00      0.00


                                0.00      0.00      0.00
                                0.00      0.00      0.00


                                0.00      0.00      0.00

     Energy error            =      4.7E-05 Ry
     Gradient error          =      1.7E-03 Ry/Bohr

     number of scf cycles    =  38
     number of bfgs steps    =  37

     energy             old  =    -111.1479435159 Ry
     energy             new  =    -111.1479906941 Ry

     CASE: energy            _new < energy            _old

     new trust radius        =       0.0977526503 bohr
     new conv_thr            =       0.0000000002 Ry


ATOMIC_POSITIONS (angstrom)
Si            5.0435718564        4.4832167184       20.1756442669
Cl            5.5965780426        6.4639881436       20.0278601597
Cl            3.1032255492        4.3597005969       20.8487974158
Cl            6.2886245518        3.5221445410       21.5089781575



     Writing output data file ./out/aiida.save/
     NEW-OLD atomic charge density approx. for the potential

     negative rho (up, down):  4.450E-02 0.000E+00

     total cpu time spent up to now is      505.4 secs

     Self-consistent Calculation

     iteration #  1     ecut=    60.00 Ry     beta= 0.40
     Davidson diagonalization with overlap

---- Real-time Memory Report at c_bands before calling an iterative solver
           638 MiB given to the printing process from OS
             0 MiB allocation reported by mallinfo(arena+hblkhd)
        324091 MiB available memory on the node where the printing process lives
------------------
     ethr =  1.00E-06,  avg # of iterations = 10.0

     negative rho (up, down):  4.444E-02 0.000E+00

     total cpu time spent up to now is      506.3 secs

     total energy              =    -111.14803750 Ry
     estimated scf accuracy    <       0.00017413 Ry

     iteration #  2     ecut=    60.00 Ry     beta= 0.40
     Davidson diagonalization with overlap

---- Real-time Memory Report at c_bands before calling an iterative solver
           638 MiB given to the printing process from OS
             0 MiB allocation reported by mallinfo(arena+hblkhd)
        324087 MiB available memory on the node where the printing process lives
------------------
     ethr =  6.97E-07,  avg # of iterations =  1.0

     negative rho (up, down):  4.466E-02 0.000E+00

     total cpu time spent up to now is      506.9 secs

     total energy              =    -111.14803883 Ry
     estimated scf accuracy    <       0.00004297 Ry

     iteration #  3     ecut=    60.00 Ry     beta= 0.40
     Davidson diagonalization with overlap

---- Real-time Memory Report at c_bands before calling an iterative solver
           638 MiB given to the printing process from OS
             0 MiB allocation reported by mallinfo(arena+hblkhd)
        324089 MiB available memory on the node where the printing process lives
------------------
     ethr =  1.72E-07,  avg # of iterations =  1.0

     negative rho (up, down):  4.466E-02 0.000E+00

     total cpu time spent up to now is      507.6 secs

     total energy              =    -111.14804135 Ry
     estimated scf accuracy    <       0.00000394 Ry

     iteration #  4     ecut=    60.00 Ry     beta= 0.40
     Davidson diagonalization with overlap

---- Real-time Memory Report at c_bands before calling an iterative solver
           638 MiB given to the printing process from OS
             0 MiB allocation reported by mallinfo(arena+hblkhd)
        324088 MiB available memory on the node where the printing process lives
------------------
     ethr =  1.58E-08,  avg # of iterations =  4.0

     negative rho (up, down):  4.456E-02 0.000E+00

     total cpu time spent up to now is      508.3 secs

     total energy              =    -111.14804189 Ry
     estimated scf accuracy    <       0.00000047 Ry

     iteration #  5     ecut=    60.00 Ry     beta= 0.40
     Davidson diagonalization with overlap

---- Real-time Memory Report at c_bands before calling an iterative solver
           638 MiB given to the printing process from OS
             0 MiB allocation reported by mallinfo(arena+hblkhd)
        324084 MiB available memory on the node where the printing process lives
------------------
     ethr =  1.90E-09,  avg # of iterations =  2.0

     negative rho (up, down):  4.446E-02 0.000E+00

     total cpu time spent up to now is      509.0 secs

     total energy              =    -111.14804195 Ry
     estimated scf accuracy    <       0.00000004 Ry

     iteration #  6     ecut=    60.00 Ry     beta= 0.40
     Davidson diagonalization with overlap

---- Real-time Memory Report at c_bands before calling an iterative solver
           638 MiB given to the printing process from OS
             0 MiB allocation reported by mallinfo(arena+hblkhd)
        324083 MiB available memory on the node where the printing process lives
------------------
     ethr =  1.60E-10,  avg # of iterations =  4.0

     negative rho (up, down):  4.441E-02 0.000E+00

     total cpu time spent up to now is      509.7 secs

     total energy              =    -111.14804196 Ry
     estimated scf accuracy    <       0.00000001 Ry

     iteration #  7     ecut=    60.00 Ry     beta= 0.40
     Davidson diagonalization with overlap

---- Real-time Memory Report at c_bands before calling an iterative solver
           638 MiB given to the printing process from OS
             0 MiB allocation reported by mallinfo(arena+hblkhd)
        324083 MiB available memory on the node where the printing process lives
------------------
     ethr =  4.93E-11,  avg # of iterations =  2.0

     negative rho (up, down):  4.438E-02 0.000E+00

     total cpu time spent up to now is      510.4 secs

     total energy              =    -111.14804198 Ry
     estimated scf accuracy    <          1.2E-09 Ry

     iteration #  8     ecut=    60.00 Ry     beta= 0.40
     Davidson diagonalization with overlap

---- Real-time Memory Report at c_bands before calling an iterative solver
           638 MiB given to the printing process from OS
             0 MiB allocation reported by mallinfo(arena+hblkhd)
        324083 MiB available memory on the node where the printing process lives
------------------
     ethr =  4.69E-12,  avg # of iterations =  2.0

     negative rho (up, down):  4.436E-02 0.000E+00

     total cpu time spent up to now is      511.0 secs

     End of self-consistent calculation

          k = 0.0000 0.0000 0.0000 ( 95217 PWs)   bands (ev):

   -21.6076 -20.8014 -20.7848 -13.1375 -10.5185 -10.5059  -9.3629  -8.6890
    -8.6834  -8.1916  -8.1813  -7.8262  -5.1246  -1.1687  -0.5576  -0.5241
    -0.4068

     occupation numbers 
     1.0000   1.0000   1.0000   1.0000   1.0000   1.0000   1.0000   1.0000
     1.0000   1.0000   1.0000   1.0000   0.5000   0.0000   0.0000   0.0000
     0.0000

     the Fermi energy is    -5.0968 ev

!    total energy              =    -111.14804202 Ry
     estimated scf accuracy    <          7.6E-11 Ry
     smearing contrib. (-TS)   =      -0.00482420 Ry
     internal energy E=F+TS    =    -111.14321782 Ry

     The total energy is F=E-TS. E is the sum of the following terms:
     one-electron contribution =    -396.26551360 Ry
     hartree contribution      =     200.32246878 Ry
     xc contribution           =     -33.92945569 Ry
     ewald contribution        =     118.73344835 Ry
     Dispersion Correction     =      -0.00416565 Ry
     one-center paw contrib.   =       0.00000000 Ry
      -> PAW hartree energy AE =       0.00000000 Ry
      -> PAW hartree energy PS =       0.00000000 Ry
      -> PAW xc energy AE      =       0.00000000 Ry
      -> PAW xc energy PS      =       0.00000000 Ry
      -> total E_H with PAW    =     200.32246878 Ry
      -> total E_XC with PAW   =     -33.92945569 Ry

     convergence has been achieved in   8 iterations

     negative rho (up, down):  4.436E-02 0.000E+00

     Forces acting on atoms (cartesian axes, Ry/au):

     atom    1 type  3   force =     0.00212634   -0.00010893    0.00062853
     atom    2 type  4   force =    -0.00091743   -0.00199144    0.00037386
     atom    3 type  4   force =     0.00017313    0.00054227    0.00014742
     atom    4 type  4   force =    -0.00138204    0.00155809   -0.00114981
     The non-local contrib.  to forces
     atom    1 type  3   force =    -0.00980064    0.06922540    0.14234294
     atom    2 type  4   force =    -0.05655237   -0.20076058    0.01930948
     atom    3 type  4   force =     0.19625220    0.01448601   -0.06584913
     atom    4 type  4   force =    -0.12699850    0.10061096   -0.13362574
     The ionic contribution  to forces
     atom    1 type  3   force =     0.23991117   -1.46962596   -3.55951986
     atom    2 type  4   force =     2.04324973    5.96465992   -2.54815349
     atom    3 type  4   force =    -6.77374796   -0.88335580    1.45082471
     atom    4 type  4   force =     4.49058706   -3.61167815    4.65684863
     The local contribution  to forces
     atom    1 type  3   force =    -0.22844606    1.40489580    3.42711784
     atom    2 type  4   force =    -1.98765376   -5.76595086    2.52945738
     atom    3 type  4   force =     6.57763096    0.86950521   -1.38463365
     atom    4 type  4   force =    -4.36506730    3.51282623   -4.52426320
     The core correction contribution to forces
     atom    1 type  3   force =     0.00045692   -0.00457362   -0.00927864
     atom    2 type  4   force =    -0.00015078   -0.00050172   -0.00002101
     atom    3 type  4   force =     0.00065458    0.00002633   -0.00021073
     atom    4 type  4   force =    -0.00032910    0.00020917   -0.00032999
     The Hubbard contrib.    to forces
     atom    1 type  3   force =     0.00000000    0.00000000    0.00000000
     atom    2 type  4   force =     0.00000000    0.00000000    0.00000000
     atom    3 type  4   force =     0.00000000    0.00000000    0.00000000
     atom    4 type  4   force =     0.00000000    0.00000000    0.00000000
     The SCF correction term to forces
     atom    1 type  3   force =    -0.00000006    0.00000062   -0.00000220
     atom    2 type  4   force =     0.00000444   -0.00000259   -0.00001065
     atom    3 type  4   force =    -0.00000105    0.00000537   -0.00000348
     atom    4 type  4   force =     0.00000285    0.00000462    0.00000363

     Dispersion contribution to forces:
     atom    1 type  3   force =     0.00000558   -0.00002957   -0.00003085
     atom    2 type  4   force =     0.00018591    0.00056599   -0.00020714
     atom    3 type  4   force =    -0.00061501   -0.00012326    0.00002041
     atom    4 type  4   force =     0.00042353   -0.00041315    0.00021757

     Total force =     0.003985     Total SCF correction =     0.000015

     Total Dispersion Force =     0.001091


     Computing stress (Cartesian axis) and pressure


     negative rho (up, down):  4.436E-02 0.000E+00
          total   stress  (Ry/bohr**3)                   (kbar)     P=       -0.04
  -0.00000020  -0.00000001  -0.00000012           -0.03       -0.00       -0.02
  -0.00000001  -0.00000055   0.00000021           -0.00       -0.08        0.03
  -0.00000012   0.00000021  -0.00000012           -0.02        0.03       -0.02

     kinetic stress (kbar)    145.43     -0.25     -0.46
                               -0.25    146.76      2.88
                               -0.46      2.88    151.27

     local   stress (kbar)  -1966.24     -9.93    -20.78
                               -9.93  -2015.04    113.53
                              -20.78    113.53   1336.54

     nonloc. stress (kbar)    136.30      0.02      0.03
                                0.02    136.15     -0.25
                                0.03     -0.25    135.75

     hartree stress (kbar)    933.43      3.89      8.30
                                3.89    961.81    -44.04
                                8.30    -44.04   -681.20

     exc-cor stress (kbar)     43.47      0.00      0.01
                                0.00     43.44     -0.06
                                0.01     -0.06     43.35

     corecor stress (kbar)    -90.35     -0.00     -0.00
                               -0.00    -90.33      0.03
                               -0.00      0.03    -90.27

     ewald   stress (kbar)    797.91      6.26     12.89
                                6.26    817.12    -72.06
                               12.89    -72.06   -895.46

     hubbard stress (kbar)      0.00      0.00      0.00
                                0.00      0.00      0.00
                                0.00      0.00      0.00

     DFT-D   stress (kbar)      0.02      0.00      0.00
                                0.00      0.01     -0.01
                                0.00     -0.01      0.00

     XDM     stress (kbar)      0.00      0.00      0.00
                                0.00      0.00      0.00
                                0.00      0.00      0.00

     dft-nl  stress (kbar)      0.00      0.00      0.00
                                0.00      0.00      0.00
                                0.00      0.00      0.00

     TS-vdW  stress (kbar)      0.00      0.00      0.00
                                0.00      0.00      0.00
                                0.00      0.00      0.00


                                0.00      0.00      0.00
                                0.00      0.00      0.00


                                0.00      0.00      0.00

     Energy error            =      5.1E-05 Ry
     Gradient error          =      2.1E-03 Ry/Bohr

     number of scf cycles    =  39
     number of bfgs steps    =  38

     energy             old  =    -111.1479906941 Ry
     energy             new  =    -111.1480420162 Ry

     CASE: energy            _new < energy            _old

     new trust radius        =       0.1062493256 bohr
     new conv_thr            =       0.0000000002 Ry


ATOMIC_POSITIONS (angstrom)
Si            5.0444857549        4.4699005763       20.1794447885
Cl            5.5875878241        6.4502727501       19.9849852134
Cl            3.1036403901        4.3440057040       20.8521370763
Cl            6.2962860310        3.5648709697       21.5447129217



     Writing output data file ./out/aiida.save/
     NEW-OLD atomic charge density approx. for the potential

     negative rho (up, down):  4.462E-02 0.000E+00

     total cpu time spent up to now is      518.8 secs

     Self-consistent Calculation

     iteration #  1     ecut=    60.00 Ry     beta= 0.40
     Davidson diagonalization with overlap

---- Real-time Memory Report at c_bands before calling an iterative solver
           638 MiB given to the printing process from OS
             0 MiB allocation reported by mallinfo(arena+hblkhd)
        324092 MiB available memory on the node where the printing process lives
------------------
     ethr =  1.00E-06,  avg # of iterations = 11.0

     negative rho (up, down):  4.456E-02 0.000E+00

     total cpu time spent up to now is      519.7 secs

     total energy              =    -111.14807790 Ry
     estimated scf accuracy    <       0.00019856 Ry

     iteration #  2     ecut=    60.00 Ry     beta= 0.40
     Davidson diagonalization with overlap

---- Real-time Memory Report at c_bands before calling an iterative solver
           638 MiB given to the printing process from OS
             0 MiB allocation reported by mallinfo(arena+hblkhd)
        324083 MiB available memory on the node where the printing process lives
------------------
     ethr =  7.94E-07,  avg # of iterations =  1.0

     negative rho (up, down):  4.482E-02 0.000E+00

     total cpu time spent up to now is      520.4 secs

     total energy              =    -111.14807791 Ry
     estimated scf accuracy    <       0.00004947 Ry

     iteration #  3     ecut=    60.00 Ry     beta= 0.40
     Davidson diagonalization with overlap

---- Real-time Memory Report at c_bands before calling an iterative solver
           638 MiB given to the printing process from OS
             0 MiB allocation reported by mallinfo(arena+hblkhd)
        324083 MiB available memory on the node where the printing process lives
------------------
     ethr =  1.98E-07,  avg # of iterations =  2.0

     negative rho (up, down):  4.480E-02 0.000E+00

     total cpu time spent up to now is      521.0 secs

     total energy              =    -111.14808107 Ry
     estimated scf accuracy    <       0.00000388 Ry

     iteration #  4     ecut=    60.00 Ry     beta= 0.40
     Davidson diagonalization with overlap

---- Real-time Memory Report at c_bands before calling an iterative solver
           638 MiB given to the printing process from OS
             0 MiB allocation reported by mallinfo(arena+hblkhd)
        324083 MiB available memory on the node where the printing process lives
------------------
     ethr =  1.55E-08,  avg # of iterations =  4.0

     negative rho (up, down):  4.468E-02 0.000E+00

     total cpu time spent up to now is      521.7 secs

     total energy              =    -111.14808145 Ry
     estimated scf accuracy    <       0.00000044 Ry

     iteration #  5     ecut=    60.00 Ry     beta= 0.40
     Davidson diagonalization with overlap

---- Real-time Memory Report at c_bands before calling an iterative solver
           638 MiB given to the printing process from OS
             0 MiB allocation reported by mallinfo(arena+hblkhd)
        324083 MiB available memory on the node where the printing process lives
------------------
     ethr =  1.75E-09,  avg # of iterations =  2.0

     negative rho (up, down):  4.458E-02 0.000E+00

     total cpu time spent up to now is      522.4 secs

     total energy              =    -111.14808149 Ry
     estimated scf accuracy    <       0.00000004 Ry

     iteration #  6     ecut=    60.00 Ry     beta= 0.40
     Davidson diagonalization with overlap

---- Real-time Memory Report at c_bands before calling an iterative solver
           638 MiB given to the printing process from OS
             0 MiB allocation reported by mallinfo(arena+hblkhd)
        324082 MiB available memory on the node where the printing process lives
------------------
     ethr =  1.75E-10,  avg # of iterations =  4.0

     negative rho (up, down):  4.452E-02 0.000E+00

     total cpu time spent up to now is      523.1 secs

     total energy              =    -111.14808150 Ry
     estimated scf accuracy    <          8.2E-09 Ry

     iteration #  7     ecut=    60.00 Ry     beta= 0.40
     Davidson diagonalization with overlap

---- Real-time Memory Report at c_bands before calling an iterative solver
           638 MiB given to the printing process from OS
             0 MiB allocation reported by mallinfo(arena+hblkhd)
        324084 MiB available memory on the node where the printing process lives
------------------
     ethr =  3.30E-11,  avg # of iterations =  2.0

     negative rho (up, down):  4.449E-02 0.000E+00

     total cpu time spent up to now is      523.8 secs

     total energy              =    -111.14808151 Ry
     estimated scf accuracy    <          2.6E-10 Ry

     iteration #  8     ecut=    60.00 Ry     beta= 0.40
     Davidson diagonalization with overlap

---- Real-time Memory Report at c_bands before calling an iterative solver
           638 MiB given to the printing process from OS
             0 MiB allocation reported by mallinfo(arena+hblkhd)
        324083 MiB available memory on the node where the printing process lives
------------------
     ethr =  1.05E-12,  avg # of iterations =  4.0

     negative rho (up, down):  4.447E-02 0.000E+00

     total cpu time spent up to now is      524.5 secs

     End of self-consistent calculation

          k = 0.0000 0.0000 0.0000 ( 95217 PWs)   bands (ev):

   -21.6071 -20.8038 -20.7788 -13.1377 -10.5218 -10.5000  -9.3633  -8.6871
    -8.6850  -8.1929  -8.1742  -7.8239  -5.1366  -1.1560  -0.5631  -0.5309
    -0.4084

     occupation numbers 
     1.0000   1.0000   1.0000   1.0000   1.0000   1.0000   1.0000   1.0000
     1.0000   1.0000   1.0000   1.0000   0.5000   0.0000   0.0000   0.0000
     0.0000

     the Fermi energy is    -5.1087 ev

!    total energy              =    -111.14808155 Ry
     estimated scf accuracy    <          4.6E-11 Ry
     smearing contrib. (-TS)   =      -0.00482420 Ry
     internal energy E=F+TS    =    -111.14325735 Ry

     The total energy is F=E-TS. E is the sum of the following terms:
     one-electron contribution =    -395.92974698 Ry
     hartree contribution      =     200.15489307 Ry
     xc contribution           =     -33.92894556 Ry
     ewald contribution        =     118.56469915 Ry
     Dispersion Correction     =      -0.00415703 Ry
     one-center paw contrib.   =       0.00000000 Ry
      -> PAW hartree energy AE =       0.00000000 Ry
      -> PAW hartree energy PS =       0.00000000 Ry
      -> PAW xc energy AE      =       0.00000000 Ry
      -> PAW xc energy PS      =       0.00000000 Ry
      -> total E_H with PAW    =     200.15489307 Ry
      -> total E_XC with PAW   =     -33.92894556 Ry

     convergence has been achieved in   8 iterations

     negative rho (up, down):  4.447E-02 0.000E+00

     Forces acting on atoms (cartesian axes, Ry/au):

     atom    1 type  3   force =     0.00254027    0.00063973    0.00131718
     atom    2 type  4   force =    -0.00163723   -0.00218064    0.00001964
     atom    3 type  4   force =     0.00046629    0.00079380   -0.00016090
     atom    4 type  4   force =    -0.00136933    0.00074711   -0.00117592
     The non-local contrib.  to forces
     atom    1 type  3   force =    -0.01145793    0.07299455    0.13947996
     atom    2 type  4   force =    -0.05709767   -0.20055792    0.02297826
     atom    3 type  4   force =     0.19638437    0.01527540   -0.06627483
     atom    4 type  4   force =    -0.12799157    0.09349919   -0.13726812
     The ionic contribution  to forces
     atom    1 type  3   force =     0.24443150   -1.55385852   -3.53005437
     atom    2 type  4   force =     1.99741802    5.95476321   -2.75907843
     atom    3 type  4   force =    -6.76160122   -0.91488828    1.45871174
     atom    4 type  4   force =     4.51975170   -3.48601641    4.83042106
     The local contribution  to forces
     atom    1 type  3   force =    -0.23109485    1.48637089    3.40091687
     atom    2 type  4   force =    -1.94201641   -5.75648459    2.73633365
     atom    3 type  4   force =     6.56563874    0.90050221   -1.39241589
     atom    4 type  4   force =    -4.39324382    3.39346365   -4.69424729
     The core correction contribution to forces
     atom    1 type  3   force =     0.00065649   -0.00483458   -0.00899376
     atom    2 type  4   force =    -0.00009134   -0.00048457    0.00002343
     atom    3 type  4   force =     0.00064071    0.00001019   -0.00019411
     atom    4 type  4   force =    -0.00032762    0.00024784   -0.00033354
     The Hubbard contrib.    to forces
     atom    1 type  3   force =     0.00000000    0.00000000    0.00000000
     atom    2 type  4   force =     0.00000000    0.00000000    0.00000000
     atom    3 type  4   force =     0.00000000    0.00000000    0.00000000
     atom    4 type  4   force =     0.00000000    0.00000000    0.00000000
     The SCF correction term to forces
     atom    1 type  3   force =     0.00000030   -0.00000073   -0.00000063
     atom    2 type  4   force =     0.00000245   -0.00000008   -0.00000071
     atom    3 type  4   force =    -0.00000025    0.00000433   -0.00000026
     atom    4 type  4   force =     0.00000183   -0.00000211   -0.00000234

     Dispersion contribution to forces:
     atom    1 type  3   force =     0.00000562   -0.00003096   -0.00003072
     atom    2 type  4   force =     0.00014856    0.00058424   -0.00023638
     atom    3 type  4   force =    -0.00059520   -0.00010913    0.00001262
     atom    4 type  4   force =     0.00044101   -0.00044415    0.00025448

     Total force =     0.004552     Total SCF correction =     0.000006

     Total Dispersion Force =     0.001115


     Computing stress (Cartesian axis) and pressure


     negative rho (up, down):  4.447E-02 0.000E+00
          total   stress  (Ry/bohr**3)                   (kbar)     P=       -0.05
  -0.00000028  -0.00000013  -0.00000010           -0.04       -0.02       -0.01
  -0.00000013  -0.00000054   0.00000015           -0.02       -0.08        0.02
  -0.00000010   0.00000015  -0.00000014           -0.01        0.02       -0.02

     kinetic stress (kbar)    145.40     -0.36     -0.50
                               -0.36    146.96      2.93
                               -0.50      2.93    151.08

     local   stress (kbar)  -1964.91    -11.97    -22.74
                              -11.97  -2003.26    118.06
                              -22.74    118.06   1325.47

     nonloc. stress (kbar)    136.29      0.02      0.04
                                0.02    136.13     -0.27
                                0.04     -0.27    135.77

     hartree stress (kbar)    932.74      4.64      9.05
                                4.64    956.78    -45.86
                                9.05    -45.86   -676.50

     exc-cor stress (kbar)     43.47      0.01      0.01
                                0.01     43.44     -0.06
                                0.01     -0.06     43.35

     corecor stress (kbar)    -90.35     -0.00     -0.01
                               -0.00    -90.32      0.04
                               -0.01      0.04    -90.27

     ewald   stress (kbar)    797.30      7.65     14.13
                                7.65    810.18    -74.82
                               14.13    -74.82   -888.93

     hubbard stress (kbar)      0.00      0.00      0.00
                                0.00      0.00      0.00
                                0.00      0.00      0.00

     DFT-D   stress (kbar)      0.02     -0.00      0.00
                               -0.00      0.01     -0.01
                                0.00     -0.01      0.00

     XDM     stress (kbar)      0.00      0.00      0.00
                                0.00      0.00      0.00
                                0.00      0.00      0.00

     dft-nl  stress (kbar)      0.00      0.00      0.00
                                0.00      0.00      0.00
                                0.00      0.00      0.00

     TS-vdW  stress (kbar)      0.00      0.00      0.00
                                0.00      0.00      0.00
                                0.00      0.00      0.00


                                0.00      0.00      0.00
                                0.00      0.00      0.00


                                0.00      0.00      0.00

     Energy error            =      4.0E-05 Ry
     Gradient error          =      2.5E-03 Ry/Bohr

     number of scf cycles    =  40
     number of bfgs steps    =  39

     energy             old  =    -111.1480420162 Ry
     energy             new  =    -111.1480815512 Ry

     CASE: energy            _new < energy            _old

     new trust radius        =       0.0566080469 bohr
     new conv_thr            =       0.0000000002 Ry


ATOMIC_POSITIONS (angstrom)
Si            5.0460810774        4.4629313502       20.1825625191
Cl            5.5813959306        6.4423497175       19.9613100258
Cl            3.1046424575        4.3360668582       20.8536376847
Cl            6.2998805346        3.5877020741       21.5637697703



     Writing output data file ./out/aiida.save/
     NEW-OLD atomic charge density approx. for the potential

     negative rho (up, down):  4.440E-02 0.000E+00

     total cpu time spent up to now is      532.3 secs

     Self-consistent Calculation

     iteration #  1     ecut=    60.00 Ry     beta= 0.40
     Davidson diagonalization with overlap

---- Real-time Memory Report at c_bands before calling an iterative solver
           638 MiB given to the printing process from OS
             0 MiB allocation reported by mallinfo(arena+hblkhd)
        324089 MiB available memory on the node where the printing process lives
------------------
     ethr =  1.00E-06,  avg # of iterations =  9.0

     negative rho (up, down):  4.438E-02 0.000E+00

     total cpu time spent up to now is      533.1 secs

     total energy              =    -111.14810052 Ry
     estimated scf accuracy    <       0.00005878 Ry

     iteration #  2     ecut=    60.00 Ry     beta= 0.40
     Davidson diagonalization with overlap

---- Real-time Memory Report at c_bands before calling an iterative solver
           638 MiB given to the printing process from OS
             0 MiB allocation reported by mallinfo(arena+hblkhd)
        324082 MiB available memory on the node where the printing process lives
------------------
     ethr =  2.35E-07,  avg # of iterations =  2.0

     negative rho (up, down):  4.452E-02 0.000E+00

     total cpu time spent up to now is      533.7 secs

     total energy              =    -111.14810224 Ry
     estimated scf accuracy    <       0.00001462 Ry

     iteration #  3     ecut=    60.00 Ry     beta= 0.40
     Davidson diagonalization with overlap

---- Real-time Memory Report at c_bands before calling an iterative solver
           638 MiB given to the printing process from OS
             0 MiB allocation reported by mallinfo(arena+hblkhd)
        324086 MiB available memory on the node where the printing process lives
------------------
     ethr =  5.85E-08,  avg # of iterations =  2.0

     negative rho (up, down):  4.450E-02 0.000E+00

     total cpu time spent up to now is      534.4 secs

     total energy              =    -111.14810361 Ry
     estimated scf accuracy    <       0.00000109 Ry

     iteration #  4     ecut=    60.00 Ry     beta= 0.40
     Davidson diagonalization with overlap

---- Real-time Memory Report at c_bands before calling an iterative solver
           638 MiB given to the printing process from OS
             0 MiB allocation reported by mallinfo(arena+hblkhd)
        324081 MiB available memory on the node where the printing process lives
------------------
     ethr =  4.35E-09,  avg # of iterations =  5.0

     negative rho (up, down):  4.444E-02 0.000E+00

     total cpu time spent up to now is      535.1 secs

     total energy              =    -111.14810426 Ry
     estimated scf accuracy    <       0.00000013 Ry

     iteration #  5     ecut=    60.00 Ry     beta= 0.40
     Davidson diagonalization with overlap

---- Real-time Memory Report at c_bands before calling an iterative solver
           638 MiB given to the printing process from OS
             0 MiB allocation reported by mallinfo(arena+hblkhd)
        324082 MiB available memory on the node where the printing process lives
------------------
     ethr =  5.07E-10,  avg # of iterations =  2.0

     negative rho (up, down):  4.439E-02 0.000E+00

     total cpu time spent up to now is      535.8 secs

     total energy              =    -111.14810426 Ry
     estimated scf accuracy    <       0.00000001 Ry

     iteration #  6     ecut=    60.00 Ry     beta= 0.40
     Davidson diagonalization with overlap

---- Real-time Memory Report at c_bands before calling an iterative solver
           638 MiB given to the printing process from OS
             0 MiB allocation reported by mallinfo(arena+hblkhd)
        324083 MiB available memory on the node where the printing process lives
------------------
     ethr =  5.13E-11,  avg # of iterations =  5.0

     negative rho (up, down):  4.437E-02 0.000E+00

     total cpu time spent up to now is      536.5 secs

     total energy              =    -111.14810426 Ry
     estimated scf accuracy    <          2.6E-09 Ry

     iteration #  7     ecut=    60.00 Ry     beta= 0.40
     Davidson diagonalization with overlap

---- Real-time Memory Report at c_bands before calling an iterative solver
           638 MiB given to the printing process from OS
             0 MiB allocation reported by mallinfo(arena+hblkhd)
        324083 MiB available memory on the node where the printing process lives
------------------
     ethr =  1.05E-11,  avg # of iterations =  2.0

     negative rho (up, down):  4.436E-02 0.000E+00

     total cpu time spent up to now is      537.2 secs

     total energy              =    -111.14810426 Ry
     estimated scf accuracy    <          1.6E-10 Ry

     iteration #  8     ecut=    60.00 Ry     beta= 0.40
     Davidson diagonalization with overlap

---- Real-time Memory Report at c_bands before calling an iterative solver
           638 MiB given to the printing process from OS
             0 MiB allocation reported by mallinfo(arena+hblkhd)
        324080 MiB available memory on the node where the printing process lives
------------------
     ethr =  6.28E-13,  avg # of iterations =  5.0

     negative rho (up, down):  4.435E-02 0.000E+00

     total cpu time spent up to now is      537.9 secs

     End of self-consistent calculation

          k = 0.0000 0.0000 0.0000 ( 95217 PWs)   bands (ev):

   -21.6094 -20.8048 -20.7796 -13.1383 -10.5236 -10.5004  -9.3652  -8.6899
    -8.6846  -8.1936  -8.1733  -7.8235  -5.1377  -1.1486  -0.5643  -0.5281
    -0.4087

     occupation numbers 
     1.0000   1.0000   1.0000   1.0000   1.0000   1.0000   1.0000   1.0000
     1.0000   1.0000   1.0000   1.0000   0.5000   0.0000   0.0000   0.0000
     0.0000

     the Fermi energy is    -5.1098 ev

!    total energy              =    -111.14810427 Ry
     estimated scf accuracy    <          2.4E-11 Ry
     smearing contrib. (-TS)   =      -0.00482420 Ry
     internal energy E=F+TS    =    -111.14328007 Ry

     The total energy is F=E-TS. E is the sum of the following terms:
     one-electron contribution =    -395.77337809 Ry
     hartree contribution      =     200.07633477 Ry
     xc contribution           =     -33.92963615 Ry
     ewald contribution        =     118.48755077 Ry
     Dispersion Correction     =      -0.00415137 Ry
     one-center paw contrib.   =       0.00000000 Ry
      -> PAW hartree energy AE =       0.00000000 Ry
      -> PAW hartree energy PS =       0.00000000 Ry
      -> PAW xc energy AE      =       0.00000000 Ry
      -> PAW xc energy PS      =       0.00000000 Ry
      -> total E_H with PAW    =     200.07633477 Ry
      -> total E_XC with PAW   =     -33.92963615 Ry

     convergence has been achieved in   8 iterations

     negative rho (up, down):  4.435E-02 0.000E+00

     Forces acting on atoms (cartesian axes, Ry/au):

     atom    1 type  3   force =     0.00230168    0.00081285    0.00115857
     atom    2 type  4   force =    -0.00176132   -0.00191329   -0.00010922
     atom    3 type  4   force =     0.00048547    0.00086089   -0.00023963
     atom    4 type  4   force =    -0.00102582    0.00023955   -0.00080972
     The non-local contrib.  to forces
     atom    1 type  3   force =    -0.01255838    0.07492711    0.13778877
     atom    2 type  4   force =    -0.05671551   -0.20011204    0.02530548
     atom    3 type  4   force =     0.19642124    0.01553322   -0.06625054
     atom    4 type  4   force =    -0.12800045    0.08982188   -0.13865190
     The ionic contribution  to forces
     atom    1 type  3   force =     0.25157009   -1.59971984   -3.50895592
     atom    2 type  4   force =     1.97110093    5.95084684   -2.87663366
     atom    3 type  4   force =    -6.75864035   -0.93267870    1.46142380
     atom    4 type  4   force =     4.53596933   -3.41844830    4.92416578
     The local contribution  to forces
     atom    1 type  3   force =    -0.23750169    1.53059432    3.38117932
     atom    2 type  4   force =    -1.91620624   -5.75273977    2.85143086
     atom    3 type  4   force =     6.56266166    0.91810738   -1.39523345
     atom    4 type  4   force =    -4.40909604    3.32904083   -4.78623620
     The core correction contribution to forces
     atom    1 type  3   force =     0.00078642   -0.00495782   -0.00882253
     atom    2 type  4   force =    -0.00007725   -0.00050059    0.00004387
     atom    3 type  4   force =     0.00063883    0.00000642   -0.00018878
     atom    4 type  4   force =    -0.00035074    0.00027376   -0.00036388
     The Hubbard contrib.    to forces
     atom    1 type  3   force =     0.00000000    0.00000000    0.00000000
     atom    2 type  4   force =     0.00000000    0.00000000    0.00000000
     atom    3 type  4   force =     0.00000000    0.00000000    0.00000000
     atom    4 type  4   force =     0.00000000    0.00000000    0.00000000
     The SCF correction term to forces
     atom    1 type  3   force =     0.00000018    0.00000070   -0.00000016
     atom    2 type  4   force =     0.00000068   -0.00000162   -0.00000294
     atom    3 type  4   force =    -0.00000090   -0.00000039   -0.00000037
     atom    4 type  4   force =     0.00000110    0.00000653    0.00000405

     Dispersion contribution to forces:
     atom    1 type  3   force =     0.00000579   -0.00003163   -0.00003052
     atom    2 type  4   force =     0.00013680    0.00059387   -0.00025242
     atom    3 type  4   force =    -0.00059429   -0.00010706    0.00001011
     atom    4 type  4   force =     0.00045170   -0.00045517    0.00027283

     Total force =     0.004108     Total SCF correction =     0.000009

     Total Dispersion Force =     0.001135


     Computing stress (Cartesian axis) and pressure


     negative rho (up, down):  4.435E-02 0.000E+00
          total   stress  (Ry/bohr**3)                   (kbar)     P=       -0.04
  -0.00000025  -0.00000018  -0.00000005           -0.04       -0.03       -0.01
  -0.00000018  -0.00000047   0.00000010           -0.03       -0.07        0.02
  -0.00000005   0.00000010  -0.00000011           -0.01        0.02       -0.02

     kinetic stress (kbar)    145.40     -0.40     -0.52
                               -0.40    147.07      2.98
                               -0.52      2.98    150.99

     local   stress (kbar)  -1964.03    -13.01    -23.81
                              -13.01  -1997.00    120.49
                              -23.81    120.49   1319.28

     nonloc. stress (kbar)    136.29      0.02      0.05
                                0.02    136.13     -0.28
                                0.05     -0.28    135.78

     hartree stress (kbar)    932.30      5.03      9.46
                                5.03    954.10    -46.82
                                9.46    -46.82   -673.85

     exc-cor stress (kbar)     43.47      0.01      0.01
                                0.01     43.43     -0.06
                                0.01     -0.06     43.35

     corecor stress (kbar)    -90.35     -0.00     -0.01
                               -0.00    -90.32      0.04
                               -0.01      0.04    -90.28

     ewald   stress (kbar)    796.86      8.33     14.81
                                8.33    806.52    -76.32
                               14.81    -76.32   -885.29

     hubbard stress (kbar)      0.00      0.00      0.00
                                0.00      0.00      0.00
                                0.00      0.00      0.00

     DFT-D   stress (kbar)      0.02     -0.00      0.00
                               -0.00      0.01     -0.01
                                0.00     -0.01      0.01

     XDM     stress (kbar)      0.00      0.00      0.00
                                0.00      0.00      0.00
                                0.00      0.00      0.00

     dft-nl  stress (kbar)      0.00      0.00      0.00
                                0.00      0.00      0.00
                                0.00      0.00      0.00

     TS-vdW  stress (kbar)      0.00      0.00      0.00
                                0.00      0.00      0.00
                                0.00      0.00      0.00


                                0.00      0.00      0.00
                                0.00      0.00      0.00


                                0.00      0.00      0.00

     Energy error            =      2.3E-05 Ry
     Gradient error          =      2.3E-03 Ry/Bohr

     number of scf cycles    =  41
     number of bfgs steps    =  40

     energy             old  =    -111.1480815512 Ry
     energy             new  =    -111.1481042666 Ry

     CASE: energy            _new < energy            _old

     new trust radius        =       0.0622688516 bohr
     new conv_thr            =       0.0000000002 Ry


ATOMIC_POSITIONS (angstrom)
Si            5.0486133726        4.4553370453       20.1866612267
Cl            5.5728447397        6.4343372320       19.9336173246
Cl            3.1063545803        4.3276506401       20.8550927505
Cl            6.3041873073        3.6117250826       21.5859086981



     Writing output data file ./out/aiida.save/
     NEW-OLD atomic charge density approx. for the potential

     negative rho (up, down):  4.419E-02 0.000E+00

     total cpu time spent up to now is      545.7 secs

     Self-consistent Calculation

     iteration #  1     ecut=    60.00 Ry     beta= 0.40
     Davidson diagonalization with overlap

---- Real-time Memory Report at c_bands before calling an iterative solver
           639 MiB given to the printing process from OS
             0 MiB allocation reported by mallinfo(arena+hblkhd)
        324085 MiB available memory on the node where the printing process lives
------------------
     ethr =  1.00E-06,  avg # of iterations = 10.0

     negative rho (up, down):  4.416E-02 0.000E+00

     total cpu time spent up to now is      546.5 secs

     total energy              =    -111.14812604 Ry
     estimated scf accuracy    <       0.00007579 Ry

     iteration #  2     ecut=    60.00 Ry     beta= 0.40
     Davidson diagonalization with overlap

---- Real-time Memory Report at c_bands before calling an iterative solver
           639 MiB given to the printing process from OS
             0 MiB allocation reported by mallinfo(arena+hblkhd)
        324080 MiB available memory on the node where the printing process lives
------------------
     ethr =  3.03E-07,  avg # of iterations =  1.0

     negative rho (up, down):  4.432E-02 0.000E+00

     total cpu time spent up to now is      547.2 secs

     total energy              =    -111.14812702 Ry
     estimated scf accuracy    <       0.00001862 Ry

     iteration #  3     ecut=    60.00 Ry     beta= 0.40
     Davidson diagonalization with overlap

---- Real-time Memory Report at c_bands before calling an iterative solver
           639 MiB given to the printing process from OS
             0 MiB allocation reported by mallinfo(arena+hblkhd)
        324080 MiB available memory on the node where the printing process lives
------------------
     ethr =  7.45E-08,  avg # of iterations =  2.0

     negative rho (up, down):  4.430E-02 0.000E+00

     total cpu time spent up to now is      547.8 secs

     total energy              =    -111.14812861 Ry
     estimated scf accuracy    <       0.00000161 Ry

     iteration #  4     ecut=    60.00 Ry     beta= 0.40
     Davidson diagonalization with overlap

---- Real-time Memory Report at c_bands before calling an iterative solver
           639 MiB given to the printing process from OS
             0 MiB allocation reported by mallinfo(arena+hblkhd)
        324079 MiB available memory on the node where the printing process lives
------------------
     ethr =  6.42E-09,  avg # of iterations =  5.0

     negative rho (up, down):  4.424E-02 0.000E+00

     total cpu time spent up to now is      548.5 secs

     total energy              =    -111.14812907 Ry
     estimated scf accuracy    <       0.00000020 Ry

     iteration #  5     ecut=    60.00 Ry     beta= 0.40
     Davidson diagonalization with overlap

---- Real-time Memory Report at c_bands before calling an iterative solver
           639 MiB given to the printing process from OS
             0 MiB allocation reported by mallinfo(arena+hblkhd)
        324080 MiB available memory on the node where the printing process lives
------------------
     ethr =  8.05E-10,  avg # of iterations =  2.0

     negative rho (up, down):  4.418E-02 0.000E+00

     total cpu time spent up to now is      549.2 secs

     total energy              =    -111.14812910 Ry
     estimated scf accuracy    <       0.00000002 Ry

     iteration #  6     ecut=    60.00 Ry     beta= 0.40
     Davidson diagonalization with overlap

---- Real-time Memory Report at c_bands before calling an iterative solver
           639 MiB given to the printing process from OS
             0 MiB allocation reported by mallinfo(arena+hblkhd)
        324079 MiB available memory on the node where the printing process lives
------------------
     ethr =  9.20E-11,  avg # of iterations =  2.0

     negative rho (up, down):  4.415E-02 0.000E+00

     total cpu time spent up to now is      549.9 secs

     total energy              =    -111.14812911 Ry
     estimated scf accuracy    <          4.6E-09 Ry

     iteration #  7     ecut=    60.00 Ry     beta= 0.40
     Davidson diagonalization with overlap

---- Real-time Memory Report at c_bands before calling an iterative solver
           639 MiB given to the printing process from OS
             0 MiB allocation reported by mallinfo(arena+hblkhd)
        324078 MiB available memory on the node where the printing process lives
------------------
     ethr =  1.83E-11,  avg # of iterations =  4.0

     negative rho (up, down):  4.414E-02 0.000E+00

     total cpu time spent up to now is      550.6 secs

     total energy              =    -111.14812911 Ry
     estimated scf accuracy    <          4.6E-10 Ry

     iteration #  8     ecut=    60.00 Ry     beta= 0.40
     Davidson diagonalization with overlap

---- Real-time Memory Report at c_bands before calling an iterative solver
           639 MiB given to the printing process from OS
             0 MiB allocation reported by mallinfo(arena+hblkhd)
        324077 MiB available memory on the node where the printing process lives
------------------
     ethr =  1.85E-12,  avg # of iterations =  2.0

     negative rho (up, down):  4.413E-02 0.000E+00

     total cpu time spent up to now is      551.3 secs

     End of self-consistent calculation

          k = 0.0000 0.0000 0.0000 ( 95217 PWs)   bands (ev):

   -21.6094 -20.8054 -20.7793 -13.1387 -10.5241 -10.5003  -9.3654  -8.6903
    -8.6847  -8.1942  -8.1732  -7.8239  -5.1399  -1.1475  -0.5663  -0.5279
    -0.4097

     occupation numbers 
     1.0000   1.0000   1.0000   1.0000   1.0000   1.0000   1.0000   1.0000
     1.0000   1.0000   1.0000   1.0000   0.5000   0.0000   0.0000   0.0000
     0.0000

     the Fermi energy is    -5.1120 ev

!    total energy              =    -111.14812913 Ry
     estimated scf accuracy    <          3.0E-11 Ry
     smearing contrib. (-TS)   =      -0.00482420 Ry
     internal energy E=F+TS    =    -111.14330493 Ry

     The total energy is F=E-TS. E is the sum of the following terms:
     one-electron contribution =    -395.53543541 Ry
     hartree contribution      =     199.95685843 Ry
     xc contribution           =     -33.92930640 Ry
     ewald contribution        =     118.36872702 Ry
     Dispersion Correction     =      -0.00414858 Ry
     one-center paw contrib.   =       0.00000000 Ry
      -> PAW hartree energy AE =       0.00000000 Ry
      -> PAW hartree energy PS =       0.00000000 Ry
      -> PAW xc energy AE      =       0.00000000 Ry
      -> PAW xc energy PS      =       0.00000000 Ry
      -> total E_H with PAW    =     199.95685843 Ry
      -> total E_XC with PAW   =     -33.92930640 Ry

     convergence has been achieved in   8 iterations

     negative rho (up, down):  4.413E-02 0.000E+00

     Forces acting on atoms (cartesian axes, Ry/au):

     atom    1 type  3   force =     0.00241714    0.00102554    0.00121704
     atom    2 type  4   force =    -0.00182928   -0.00211629   -0.00005877
     atom    3 type  4   force =     0.00047336    0.00087831   -0.00027330
     atom    4 type  4   force =    -0.00106123    0.00021244   -0.00088497
     The non-local contrib.  to forces
     atom    1 type  3   force =    -0.01332832    0.07726298    0.13639474
     atom    2 type  4   force =    -0.05576271   -0.20015848    0.02843062
     atom    3 type  4   force =     0.19646536    0.01569204   -0.06606336
     atom    4 type  4   force =    -0.12823846    0.08656247   -0.14057330
     The ionic contribution  to forces
     atom    1 type  3   force =     0.27035701   -1.64894510   -3.47695683
     atom    2 type  4   force =     1.93737637    5.93801474   -3.01009512
     atom    3 type  4   force =    -6.75479121   -0.95267656    1.46381436
     atom    4 type  4   force =     4.54705783   -3.33639308    5.02323760
     The local contribution  to forces
     atom    1 type  3   force =    -0.25544708    1.57786419    3.35053244
     atom    2 type  4   force =    -1.88350565   -5.74007793    2.98181164
     atom    3 type  4   force =     6.55875294    0.93796087   -1.39784400
     atom    4 type  4   force =    -4.41998656    3.25022240   -4.88346183
     The core correction contribution to forces
     atom    1 type  3   force =     0.00083034   -0.00512447   -0.00872223
     atom    2 type  4   force =    -0.00006648   -0.00048663    0.00005364
     atom    3 type  4   force =     0.00064086    0.00000559   -0.00018656
     atom    4 type  4   force =    -0.00034912    0.00026749   -0.00036600
     The Hubbard contrib.    to forces
     atom    1 type  3   force =     0.00000000    0.00000000    0.00000000
     atom    2 type  4   force =     0.00000000    0.00000000    0.00000000
     atom    3 type  4   force =     0.00000000    0.00000000    0.00000000
     atom    4 type  4   force =     0.00000000    0.00000000    0.00000000
     The SCF correction term to forces
     atom    1 type  3   force =     0.00000001   -0.00000052    0.00000013
     atom    2 type  4   force =    -0.00000178    0.00000357    0.00000214
     atom    3 type  4   force =    -0.00000151    0.00000404   -0.00000212
     atom    4 type  4   force =     0.00000104   -0.00000098   -0.00000239

     Dispersion contribution to forces:
     atom    1 type  3   force =     0.00000592   -0.00003238   -0.00003033
     atom    2 type  4   force =     0.00013169    0.00058760   -0.00026079
     atom    3 type  4   force =    -0.00059237   -0.00010850    0.00000928
     atom    4 type  4   force =     0.00045476   -0.00044671    0.00028184

     Total force =     0.004385     Total SCF correction =     0.000007

     Total Dispersion Force =     0.001132


     Computing stress (Cartesian axis) and pressure


     negative rho (up, down):  4.413E-02 0.000E+00
          total   stress  (Ry/bohr**3)                   (kbar)     P=       -0.04
  -0.00000025  -0.00000019  -0.00000005           -0.04       -0.03       -0.01
  -0.00000019  -0.00000052   0.00000011           -0.03       -0.08        0.02
  -0.00000005   0.00000011  -0.00000012           -0.01        0.02       -0.02

     kinetic stress (kbar)    145.41     -0.43     -0.55
                               -0.43    147.16      3.03
                               -0.55      3.03    150.88

     local   stress (kbar)  -1962.56    -14.06    -24.98
                              -14.06  -1989.91    123.14
                              -24.98    123.14   1312.16

     nonloc. stress (kbar)    136.29      0.02      0.05
                                0.02    136.12     -0.28
                                0.05     -0.28    135.79

     hartree stress (kbar)    931.58      5.43      9.92
                                5.43    951.05    -47.87
                                9.92    -47.87   -670.81

     exc-cor stress (kbar)     43.47      0.01      0.01
                                0.01     43.43     -0.06
                                0.01     -0.06     43.36

     corecor stress (kbar)    -90.35     -0.00     -0.01
                               -0.00    -90.32      0.04
                               -0.01      0.04    -90.28

     ewald   stress (kbar)    796.10      9.01     15.54
                                9.01    802.39    -77.97
                               15.54    -77.97   -881.13

     hubbard stress (kbar)      0.00      0.00      0.00
                                0.00      0.00      0.00
                                0.00      0.00      0.00

     DFT-D   stress (kbar)      0.02     -0.00      0.00
                               -0.00      0.01     -0.01
                                0.00     -0.01      0.01

     XDM     stress (kbar)      0.00      0.00      0.00
                                0.00      0.00      0.00
                                0.00      0.00      0.00

     dft-nl  stress (kbar)      0.00      0.00      0.00
                                0.00      0.00      0.00
                                0.00      0.00      0.00

     TS-vdW  stress (kbar)      0.00      0.00      0.00
                                0.00      0.00      0.00
                                0.00      0.00      0.00


                                0.00      0.00      0.00
                                0.00      0.00      0.00


                                0.00      0.00      0.00

     Energy error            =      2.5E-05 Ry
     Gradient error          =      2.4E-03 Ry/Bohr

     number of scf cycles    =  42
     number of bfgs steps    =  41

     energy             old  =    -111.1481042666 Ry
     energy             new  =    -111.1481291304 Ry

     CASE: energy            _new < energy            _old

     new trust radius        =       0.0934032774 bohr
     new conv_thr            =       0.0000000002 Ry


ATOMIC_POSITIONS (angstrom)
Si            5.0537626239        4.4440077647       20.1933518046
Cl            5.5588382206        6.4204949518       19.8925567247
Cl            3.1099826289        4.3158197286       20.8571132850
Cl            6.3094165267        3.6487275550       21.6182581856



     Writing output data file ./out/aiida.save/
     NEW-OLD atomic charge density approx. for the potential

     negative rho (up, down):  4.438E-02 0.000E+00

     total cpu time spent up to now is      559.0 secs

     Self-consistent Calculation

     iteration #  1     ecut=    60.00 Ry     beta= 0.40
     Davidson diagonalization with overlap

---- Real-time Memory Report at c_bands before calling an iterative solver
           641 MiB given to the printing process from OS
             0 MiB allocation reported by mallinfo(arena+hblkhd)
        324082 MiB available memory on the node where the printing process lives
------------------
     ethr =  1.00E-06,  avg # of iterations = 10.0

     negative rho (up, down):  4.434E-02 0.000E+00

     total cpu time spent up to now is      559.9 secs

     total energy              =    -111.14817508 Ry
     estimated scf accuracy    <       0.00017158 Ry

     iteration #  2     ecut=    60.00 Ry     beta= 0.40
     Davidson diagonalization with overlap

---- Real-time Memory Report at c_bands before calling an iterative solver
           641 MiB given to the printing process from OS
             0 MiB allocation reported by mallinfo(arena+hblkhd)
        324077 MiB available memory on the node where the printing process lives
------------------
     ethr =  6.86E-07,  avg # of iterations =  1.0

     negative rho (up, down):  4.458E-02 0.000E+00

     total cpu time spent up to now is      560.5 secs

     total energy              =    -111.14817656 Ry
     estimated scf accuracy    <       0.00004191 Ry

     iteration #  3     ecut=    60.00 Ry     beta= 0.40
     Davidson diagonalization with overlap

---- Real-time Memory Report at c_bands before calling an iterative solver
           641 MiB given to the printing process from OS
             0 MiB allocation reported by mallinfo(arena+hblkhd)
        324076 MiB available memory on the node where the printing process lives
------------------
     ethr =  1.68E-07,  avg # of iterations =  2.0

     negative rho (up, down):  4.458E-02 0.000E+00

     total cpu time spent up to now is      561.2 secs

     total energy              =    -111.14817913 Ry
     estimated scf accuracy    <       0.00000369 Ry

     iteration #  4     ecut=    60.00 Ry     beta= 0.40
     Davidson diagonalization with overlap

---- Real-time Memory Report at c_bands before calling an iterative solver
           641 MiB given to the printing process from OS
             0 MiB allocation reported by mallinfo(arena+hblkhd)
        324076 MiB available memory on the node where the printing process lives
------------------
     ethr =  1.48E-08,  avg # of iterations =  2.0

     negative rho (up, down):  4.447E-02 0.000E+00

     total cpu time spent up to now is      561.9 secs

     total energy              =    -111.14817937 Ry
     estimated scf accuracy    <       0.00000027 Ry

     iteration #  5     ecut=    60.00 Ry     beta= 0.40
     Davidson diagonalization with overlap

---- Real-time Memory Report at c_bands before calling an iterative solver
           641 MiB given to the printing process from OS
             0 MiB allocation reported by mallinfo(arena+hblkhd)
        324076 MiB available memory on the node where the printing process lives
------------------
     ethr =  1.10E-09,  avg # of iterations =  5.0

     negative rho (up, down):  4.437E-02 0.000E+00

     total cpu time spent up to now is      562.6 secs

     total energy              =    -111.14817946 Ry
     estimated scf accuracy    <       0.00000004 Ry

     iteration #  6     ecut=    60.00 Ry     beta= 0.40
     Davidson diagonalization with overlap

---- Real-time Memory Report at c_bands before calling an iterative solver
           641 MiB given to the printing process from OS
             0 MiB allocation reported by mallinfo(arena+hblkhd)
        324076 MiB available memory on the node where the printing process lives
------------------
     ethr =  1.55E-10,  avg # of iterations =  4.0

     negative rho (up, down):  4.432E-02 0.000E+00

     total cpu time spent up to now is      563.3 secs

     total energy              =    -111.14817947 Ry
     estimated scf accuracy    <          4.3E-09 Ry

     iteration #  7     ecut=    60.00 Ry     beta= 0.40
     Davidson diagonalization with overlap

---- Real-time Memory Report at c_bands before calling an iterative solver
           641 MiB given to the printing process from OS
             0 MiB allocation reported by mallinfo(arena+hblkhd)
        324075 MiB available memory on the node where the printing process lives
------------------
     ethr =  1.73E-11,  avg # of iterations =  4.0

     negative rho (up, down):  4.429E-02 0.000E+00

     total cpu time spent up to now is      564.0 secs

     total energy              =    -111.14817947 Ry
     estimated scf accuracy    <          5.1E-10 Ry

     iteration #  8     ecut=    60.00 Ry     beta= 0.40
     Davidson diagonalization with overlap

---- Real-time Memory Report at c_bands before calling an iterative solver
           641 MiB given to the printing process from OS
             0 MiB allocation reported by mallinfo(arena+hblkhd)
        324074 MiB available memory on the node where the printing process lives
------------------
     ethr =  2.03E-12,  avg # of iterations =  3.0

     negative rho (up, down):  4.427E-02 0.000E+00

     total cpu time spent up to now is      564.7 secs

     End of self-consistent calculation

          k = 0.0000 0.0000 0.0000 ( 95217 PWs)   bands (ev):

   -21.6140 -20.8048 -20.7847 -13.1400 -10.5246 -10.5050  -9.3688  -8.6932
    -8.6867  -8.1932  -8.1759  -7.8246  -5.1385  -1.1375  -0.5618  -0.5258
    -0.4101

     occupation numbers 
     1.0000   1.0000   1.0000   1.0000   1.0000   1.0000   1.0000   1.0000
     1.0000   1.0000   1.0000   1.0000   0.5000   0.0000   0.0000   0.0000
     0.0000

     the Fermi energy is    -5.1106 ev

!    total energy              =    -111.14817950 Ry
     estimated scf accuracy    <          1.2E-10 Ry
     smearing contrib. (-TS)   =      -0.00482420 Ry
     internal energy E=F+TS    =    -111.14335531 Ry

     The total energy is F=E-TS. E is the sum of the following terms:
     one-electron contribution =    -395.25190395 Ry
     hartree contribution      =     199.81405112 Ry
     xc contribution           =     -33.93065236 Ry
     ewald contribution        =     118.22929069 Ry
     Dispersion Correction     =      -0.00414080 Ry
     one-center paw contrib.   =       0.00000000 Ry
      -> PAW hartree energy AE =       0.00000000 Ry
      -> PAW hartree energy PS =       0.00000000 Ry
      -> PAW xc energy AE      =       0.00000000 Ry
      -> PAW xc energy PS      =       0.00000000 Ry
      -> total E_H with PAW    =     199.81405112 Ry
      -> total E_XC with PAW   =     -33.93065236 Ry

     convergence has been achieved in   8 iterations

     negative rho (up, down):  4.427E-02 0.000E+00

     Forces acting on atoms (cartesian axes, Ry/au):

     atom    1 type  3   force =     0.00166781    0.00102529    0.00072463
     atom    2 type  4   force =    -0.00156738   -0.00162107   -0.00011402
     atom    3 type  4   force =     0.00032968    0.00078578   -0.00031444
     atom    4 type  4   force =    -0.00043012   -0.00019000   -0.00029617
     The non-local contrib.  to forces
     atom    1 type  3   force =    -0.01502965    0.08032796    0.13363861
     atom    2 type  4   force =    -0.05354995   -0.19940969    0.03302861
     atom    3 type  4   force =     0.19650080    0.01560537   -0.06574143
     atom    4 type  4   force =    -0.12766150    0.08133558   -0.14270929
     The ionic contribution  to forces
     atom    1 type  3   force =     0.30045488   -1.72617546   -3.43010256
     atom    2 type  4   force =     1.88696041    5.92513442   -3.21162281
     atom    3 type  4   force =    -6.75467223   -0.98339833    1.46700498
     atom    4 type  4   force =     4.56725694   -3.21556062    5.17472038
     The local contribution  to forces
     atom    1 type  3   force =    -0.28474654    1.65221264    3.30568785
     atom    2 type  4   force =    -1.83504505   -5.72742118    3.17868711
     atom    3 type  4   force =     6.55845999    0.96869497   -1.40141094
     atom    4 type  4   force =    -4.44009084    3.13419144   -5.03217973
     The core correction contribution to forces
     atom    1 type  3   force =     0.00098065   -0.00530148   -0.00847096
     atom    2 type  4   force =    -0.00007521   -0.00051757    0.00007682
     atom    3 type  4   force =     0.00064501    0.00001310   -0.00018105
     atom    4 type  4   force =    -0.00039354    0.00028311   -0.00041736
     The Hubbard contrib.    to forces
     atom    1 type  3   force =     0.00000000    0.00000000    0.00000000
     atom    2 type  4   force =     0.00000000    0.00000000    0.00000000
     atom    3 type  4   force =     0.00000000    0.00000000    0.00000000
     atom    4 type  4   force =     0.00000000    0.00000000    0.00000000
     The SCF correction term to forces
     atom    1 type  3   force =     0.00000213   -0.00000545    0.00000181
     atom    2 type  4   force =     0.00000849    0.00000104   -0.00000333
     atom    3 type  4   force =     0.00000444   -0.00001128    0.00000371
     atom    4 type  4   force =    -0.00000918   -0.00000044   -0.00000958

     Dispersion contribution to forces:
     atom    1 type  3   force =     0.00000636   -0.00003339   -0.00002990
     atom    2 type  4   force =     0.00013395    0.00059145   -0.00028021
     atom    3 type  4   force =    -0.00060832   -0.00011853    0.00001050
     atom    4 type  4   force =     0.00046800   -0.00043953    0.00029962

     Total force =     0.003254     Total SCF correction =     0.000021

     Total Dispersion Force =     0.001155


     Computing stress (Cartesian axis) and pressure


     negative rho (up, down):  4.427E-02 0.000E+00
          total   stress  (Ry/bohr**3)                   (kbar)     P=       -0.03
  -0.00000015  -0.00000019   0.00000001           -0.02       -0.03        0.00
  -0.00000019  -0.00000043   0.00000006           -0.03       -0.06        0.01
   0.00000001   0.00000006  -0.00000005            0.00        0.01       -0.01

     kinetic stress (kbar)    145.45     -0.46     -0.59
                               -0.46    147.31      3.11
                               -0.59      3.11    150.73

     local   stress (kbar)  -1960.31    -15.61    -26.78
                              -15.61  -1979.39    126.97
                              -26.78    126.97   1301.10

     nonloc. stress (kbar)    136.29      0.02      0.06
                                0.02    136.11     -0.29
                                0.06     -0.29    135.80

     hartree stress (kbar)    930.51      6.03     10.62
                                6.03    946.51    -49.38
                               10.62    -49.38   -666.07

     exc-cor stress (kbar)     43.46      0.01      0.01
                                0.01     43.43     -0.06
                                0.01     -0.06     43.36

     corecor stress (kbar)    -90.35     -0.00     -0.01
                               -0.00    -90.32      0.04
                               -0.01      0.04    -90.28

     ewald   stress (kbar)    794.90      9.99     16.68
                                9.99    796.28    -80.36
                               16.68    -80.36   -874.66

     hubbard stress (kbar)      0.00      0.00      0.00
                                0.00      0.00      0.00
                                0.00      0.00      0.00

     DFT-D   stress (kbar)      0.02     -0.00      0.00
                               -0.00      0.01     -0.01
                                0.00     -0.01      0.01

     XDM     stress (kbar)      0.00      0.00      0.00
                                0.00      0.00      0.00
                                0.00      0.00      0.00

     dft-nl  stress (kbar)      0.00      0.00      0.00
                                0.00      0.00      0.00
                                0.00      0.00      0.00

     TS-vdW  stress (kbar)      0.00      0.00      0.00
                                0.00      0.00      0.00
                                0.00      0.00      0.00


                                0.00      0.00      0.00
                                0.00      0.00      0.00


                                0.00      0.00      0.00

     Energy error            =      5.0E-05 Ry
     Gradient error          =      1.7E-03 Ry/Bohr

     number of scf cycles    =  43
     number of bfgs steps    =  42

     energy             old  =    -111.1481291304 Ry
     energy             new  =    -111.1481795030 Ry

     CASE: energy            _new < energy            _old

     new trust radius        =       0.1401049160 bohr
     new conv_thr            =       0.0000000002 Ry


ATOMIC_POSITIONS (angstrom)
Si            5.0612073232        4.4272509732       20.2034986065
Cl            5.5372002498        6.4012460318       19.8294626560
Cl            3.1151459952        4.2978603150       20.8600304164
Cl            6.3184464319        3.7026926799       21.6682883210



     Writing output data file ./out/aiida.save/
     NEW-OLD atomic charge density approx. for the potential

     negative rho (up, down):  4.487E-02 0.000E+00

     total cpu time spent up to now is      572.5 secs

     Self-consistent Calculation

     iteration #  1     ecut=    60.00 Ry     beta= 0.40
     Davidson diagonalization with overlap

---- Real-time Memory Report at c_bands before calling an iterative solver
           641 MiB given to the printing process from OS
             0 MiB allocation reported by mallinfo(arena+hblkhd)
        324077 MiB available memory on the node where the printing process lives
------------------
     ethr =  1.00E-06,  avg # of iterations = 12.0

     negative rho (up, down):  4.475E-02 0.000E+00

     total cpu time spent up to now is      573.3 secs

     total energy              =    -111.14821131 Ry
     estimated scf accuracy    <       0.00040005 Ry

     iteration #  2     ecut=    60.00 Ry     beta= 0.40
     Davidson diagonalization with overlap

---- Real-time Memory Report at c_bands before calling an iterative solver
           641 MiB given to the printing process from OS
             0 MiB allocation reported by mallinfo(arena+hblkhd)
        324071 MiB available memory on the node where the printing process lives
------------------
     ethr =  1.60E-06,  avg # of iterations =  1.0

     negative rho (up, down):  4.502E-02 0.000E+00

     total cpu time spent up to now is      574.0 secs

     total energy              =    -111.14821429 Ry
     estimated scf accuracy    <       0.00009614 Ry

     iteration #  3     ecut=    60.00 Ry     beta= 0.40
     Davidson diagonalization with overlap

---- Real-time Memory Report at c_bands before calling an iterative solver
           641 MiB given to the printing process from OS
             0 MiB allocation reported by mallinfo(arena+hblkhd)
        324071 MiB available memory on the node where the printing process lives
------------------
     ethr =  3.85E-07,  avg # of iterations =  1.0

     negative rho (up, down):  4.501E-02 0.000E+00

     total cpu time spent up to now is      574.7 secs

     total energy              =    -111.14821935 Ry
     estimated scf accuracy    <       0.00001032 Ry

     iteration #  4     ecut=    60.00 Ry     beta= 0.40
     Davidson diagonalization with overlap

---- Real-time Memory Report at c_bands before calling an iterative solver
           641 MiB given to the printing process from OS
             0 MiB allocation reported by mallinfo(arena+hblkhd)
        324071 MiB available memory on the node where the printing process lives
------------------
     ethr =  4.13E-08,  avg # of iterations =  2.0

     negative rho (up, down):  4.490E-02 0.000E+00

     total cpu time spent up to now is      575.4 secs

     total energy              =    -111.14821995 Ry
     estimated scf accuracy    <       0.00000101 Ry

     iteration #  5     ecut=    60.00 Ry     beta= 0.40
     Davidson diagonalization with overlap

---- Real-time Memory Report at c_bands before calling an iterative solver
           641 MiB given to the printing process from OS
             0 MiB allocation reported by mallinfo(arena+hblkhd)
        324071 MiB available memory on the node where the printing process lives
------------------
     ethr =  4.05E-09,  avg # of iterations =  4.0

     negative rho (up, down):  4.475E-02 0.000E+00

     total cpu time spent up to now is      576.1 secs

     total energy              =    -111.14822006 Ry
     estimated scf accuracy    <       0.00000010 Ry

     iteration #  6     ecut=    60.00 Ry     beta= 0.40
     Davidson diagonalization with overlap

---- Real-time Memory Report at c_bands before calling an iterative solver
           641 MiB given to the printing process from OS
             0 MiB allocation reported by mallinfo(arena+hblkhd)
        324071 MiB available memory on the node where the printing process lives
------------------
     ethr =  3.82E-10,  avg # of iterations =  2.0

     negative rho (up, down):  4.467E-02 0.000E+00

     total cpu time spent up to now is      576.7 secs

     total energy              =    -111.14822009 Ry
     estimated scf accuracy    <       0.00000001 Ry

     iteration #  7     ecut=    60.00 Ry     beta= 0.40
     Davidson diagonalization with overlap

---- Real-time Memory Report at c_bands before calling an iterative solver
           641 MiB given to the printing process from OS
             0 MiB allocation reported by mallinfo(arena+hblkhd)
        324071 MiB available memory on the node where the printing process lives
------------------
     ethr =  4.55E-11,  avg # of iterations =  4.0

     negative rho (up, down):  4.462E-02 0.000E+00

     total cpu time spent up to now is      577.4 secs

     total energy              =    -111.14822013 Ry
     estimated scf accuracy    <          1.0E-09 Ry

     iteration #  8     ecut=    60.00 Ry     beta= 0.40
     Davidson diagonalization with overlap

---- Real-time Memory Report at c_bands before calling an iterative solver
           641 MiB given to the printing process from OS
             0 MiB allocation reported by mallinfo(arena+hblkhd)
        324071 MiB available memory on the node where the printing process lives
------------------
     ethr =  3.98E-12,  avg # of iterations =  4.0

     negative rho (up, down):  4.459E-02 0.000E+00

     total cpu time spent up to now is      578.1 secs

     End of self-consistent calculation

          k = 0.0000 0.0000 0.0000 ( 95217 PWs)   bands (ev):

   -21.6074 -20.8043 -20.7796 -13.1403 -10.5216 -10.5019  -9.3646  -8.6897
    -8.6857  -8.1924  -8.1755  -7.8257  -5.1513  -1.1468  -0.5706  -0.5367
    -0.4137

     occupation numbers 
     1.0000   1.0000   1.0000   1.0000   1.0000   1.0000   1.0000   1.0000
     1.0000   1.0000   1.0000   1.0000   0.5000   0.0000   0.0000   0.0000
     0.0000

     the Fermi energy is    -5.1234 ev

!    total energy              =    -111.14822020 Ry
     estimated scf accuracy    <          1.1E-10 Ry
     smearing contrib. (-TS)   =      -0.00482420 Ry
     internal energy E=F+TS    =    -111.14339600 Ry

     The total energy is F=E-TS. E is the sum of the following terms:
     one-electron contribution =    -394.57292536 Ry
     hartree contribution      =     199.47392032 Ry
     xc contribution           =     -33.92727431 Ry
     ewald contribution        =     117.88702425 Ry
     Dispersion Correction     =      -0.00414091 Ry
     one-center paw contrib.   =       0.00000000 Ry
      -> PAW hartree energy AE =       0.00000000 Ry
      -> PAW hartree energy PS =       0.00000000 Ry
      -> PAW xc energy AE      =       0.00000000 Ry
      -> PAW xc energy PS      =       0.00000000 Ry
      -> total E_H with PAW    =     199.47392032 Ry
      -> total E_XC with PAW   =     -33.92727431 Ry

     convergence has been achieved in   8 iterations

     negative rho (up, down):  4.459E-02 0.000E+00

     Forces acting on atoms (cartesian axes, Ry/au):

     atom    1 type  3   force =     0.00268336    0.00195149    0.00169173
     atom    2 type  4   force =    -0.00161384   -0.00325403    0.00038349
     atom    3 type  4   force =     0.00037223    0.00065445   -0.00039854
     atom    4 type  4   force =    -0.00144174    0.00064809   -0.00167669
     The non-local contrib.  to forces
     atom    1 type  3   force =    -0.01597160    0.08576720    0.13108237
     atom    2 type  4   force =    -0.05044950   -0.20049365    0.04072010
     atom    3 type  4   force =     0.19670438    0.01551504   -0.06521343
     atom    4 type  4   force =    -0.12860486    0.07513741   -0.14800774
     The ionic contribution  to forces
     atom    1 type  3   force =     0.36577070   -1.83142595   -3.34278049
     atom    2 type  4   force =     1.80512848    5.87049944   -3.50511556
     atom    3 type  4   force =    -6.74371038   -1.02893762    1.47155144
     atom    4 type  4   force =     4.57281120   -3.01013587    5.37634460
     The local contribution  to forces
     atom    1 type  3   force =    -0.34801427    1.75336720    3.22179556
     atom    2 type  4   force =    -1.75638161   -5.67341213    3.46498097
     atom    3 type  4   force =     6.54732745    1.01419094   -1.40658261
     atom    4 type  4   force =    -4.44577027    2.93581861   -5.22997222
     The core correction contribution to forces
     atom    1 type  3   force =     0.00088945   -0.00572000   -0.00838049
     atom    2 type  4   force =    -0.00005865   -0.00040553    0.00007396
     atom    3 type  4   force =     0.00064870    0.00002380   -0.00017667
     atom    4 type  4   force =    -0.00032685    0.00020699   -0.00034074
     The Hubbard contrib.    to forces
     atom    1 type  3   force =     0.00000000    0.00000000    0.00000000
     atom    2 type  4   force =     0.00000000    0.00000000    0.00000000
     atom    3 type  4   force =     0.00000000    0.00000000    0.00000000
     atom    4 type  4   force =     0.00000000    0.00000000    0.00000000
     The SCF correction term to forces
     atom    1 type  3   force =     0.00000171   -0.00000237    0.00000552
     atom    2 type  4   force =     0.00000763    0.00000722    0.00000496
     atom    3 type  4   force =     0.00000411   -0.00000858    0.00001042
     atom    4 type  4   force =    -0.00000913    0.00000602    0.00000466

     Dispersion contribution to forces:
     atom    1 type  3   force =     0.00000655   -0.00003504   -0.00002959
     atom    2 type  4   force =     0.00013897    0.00055016   -0.00027979
     atom    3 type  4   force =    -0.00060286   -0.00012959    0.00001347
     atom    4 type  4   force =     0.00045734   -0.00038553    0.00029591

     Total force =     0.005766     Total SCF correction =     0.000023

     Total Dispersion Force =     0.001108


     Computing stress (Cartesian axis) and pressure


     negative rho (up, down):  4.459E-02 0.000E+00
          total   stress  (Ry/bohr**3)                   (kbar)     P=       -0.06
  -0.00000026  -0.00000015  -0.00000010           -0.04       -0.02       -0.01
  -0.00000015  -0.00000076   0.00000020           -0.02       -0.11        0.03
  -0.00000010   0.00000020  -0.00000023           -0.01        0.03       -0.03

     kinetic stress (kbar)    145.46     -0.51     -0.65
                               -0.51    147.49      3.23
                               -0.65      3.23    150.44

     local   stress (kbar)  -1955.78    -18.06    -29.38
                              -18.06  -1962.74    131.86
                              -29.38    131.86   1284.08

     nonloc. stress (kbar)    136.29      0.03      0.05
                                0.03    136.07     -0.29
                                0.05     -0.29    135.82

     hartree stress (kbar)    928.36      6.98     11.67
                                6.98    939.33    -51.35
                               11.67    -51.35   -658.79

     exc-cor stress (kbar)     43.47      0.01      0.01
                                0.01     43.43     -0.07
                                0.01     -0.07     43.37

     corecor stress (kbar)    -90.34     -0.01     -0.01
                               -0.01    -90.31      0.04
                               -0.01      0.04    -90.28

     ewald   stress (kbar)    792.49     11.53     18.27
                               11.53    786.62    -83.38
                               18.27    -83.38   -864.67

     hubbard stress (kbar)      0.00      0.00      0.00
                                0.00      0.00      0.00
                                0.00      0.00      0.00

     DFT-D   stress (kbar)      0.02      0.00      0.00
                                0.00      0.01     -0.01
                                0.00     -0.01      0.01

     XDM     stress (kbar)      0.00      0.00      0.00
                                0.00      0.00      0.00
                                0.00      0.00      0.00

     dft-nl  stress (kbar)      0.00      0.00      0.00
                                0.00      0.00      0.00
                                0.00      0.00      0.00

     TS-vdW  stress (kbar)      0.00      0.00      0.00
                                0.00      0.00      0.00
                                0.00      0.00      0.00


                                0.00      0.00      0.00
                                0.00      0.00      0.00


                                0.00      0.00      0.00

     Energy error            =      4.1E-05 Ry
     Gradient error          =      3.3E-03 Ry/Bohr

     number of scf cycles    =  44
     number of bfgs steps    =  43

     energy             old  =    -111.1481795030 Ry
     energy             new  =    -111.1482201951 Ry

     CASE: energy            _new < energy            _old

     new trust radius        =       0.1818679293 bohr
     new conv_thr            =       0.0000000002 Ry


ATOMIC_POSITIONS (angstrom)
Si            5.0753424626        4.4062531956       20.2188186172
Cl            5.5053128816        6.3693651793       19.7494789116
Cl            3.1252880958        4.2772446420       20.8630266469
Cl            6.3260565600        3.7761869830       21.7299558241



     Writing output data file ./out/aiida.save/
     NEW-OLD atomic charge density approx. for the potential

     negative rho (up, down):  4.511E-02 0.000E+00

     total cpu time spent up to now is      585.9 secs

     Self-consistent Calculation

     iteration #  1     ecut=    60.00 Ry     beta= 0.40
     Davidson diagonalization with overlap

---- Real-time Memory Report at c_bands before calling an iterative solver
           641 MiB given to the printing process from OS
             0 MiB allocation reported by mallinfo(arena+hblkhd)
        324075 MiB available memory on the node where the printing process lives
------------------
     ethr =  1.00E-06,  avg # of iterations = 13.0

     negative rho (up, down):  4.498E-02 0.000E+00

     total cpu time spent up to now is      586.8 secs

     total energy              =    -111.14828569 Ry
     estimated scf accuracy    <       0.00068094 Ry

     iteration #  2     ecut=    60.00 Ry     beta= 0.40
     Davidson diagonalization with overlap

---- Real-time Memory Report at c_bands before calling an iterative solver
           641 MiB given to the printing process from OS
             0 MiB allocation reported by mallinfo(arena+hblkhd)
        324068 MiB available memory on the node where the printing process lives
------------------
     ethr =  2.72E-06,  avg # of iterations =  1.0

     negative rho (up, down):  4.540E-02 0.000E+00

     total cpu time spent up to now is      587.5 secs

     total energy              =    -111.14828692 Ry
     estimated scf accuracy    <       0.00016606 Ry

     iteration #  3     ecut=    60.00 Ry     beta= 0.40
     Davidson diagonalization with overlap

---- Real-time Memory Report at c_bands before calling an iterative solver
           641 MiB given to the printing process from OS
             0 MiB allocation reported by mallinfo(arena+hblkhd)
        324067 MiB available memory on the node where the printing process lives
------------------
     ethr =  6.64E-07,  avg # of iterations =  1.0

     negative rho (up, down):  4.537E-02 0.000E+00

     total cpu time spent up to now is      588.1 secs

     total energy              =    -111.14829586 Ry
     estimated scf accuracy    <       0.00001477 Ry

     iteration #  4     ecut=    60.00 Ry     beta= 0.40
     Davidson diagonalization with overlap

---- Real-time Memory Report at c_bands before calling an iterative solver
           641 MiB given to the printing process from OS
             0 MiB allocation reported by mallinfo(arena+hblkhd)
        324066 MiB available memory on the node where the printing process lives
------------------
     ethr =  5.91E-08,  avg # of iterations =  2.0

     negative rho (up, down):  4.520E-02 0.000E+00

     total cpu time spent up to now is      588.8 secs

     total energy              =    -111.14829660 Ry
     estimated scf accuracy    <       0.00000124 Ry

     iteration #  5     ecut=    60.00 Ry     beta= 0.40
     Davidson diagonalization with overlap

---- Real-time Memory Report at c_bands before calling an iterative solver
           641 MiB given to the printing process from OS
             0 MiB allocation reported by mallinfo(arena+hblkhd)
        324066 MiB available memory on the node where the printing process lives
------------------
     ethr =  4.94E-09,  avg # of iterations =  2.0

     negative rho (up, down):  4.501E-02 0.000E+00

     total cpu time spent up to now is      589.5 secs

     total energy              =    -111.14829669 Ry
     estimated scf accuracy    <       0.00000014 Ry

     iteration #  6     ecut=    60.00 Ry     beta= 0.40
     Davidson diagonalization with overlap

---- Real-time Memory Report at c_bands before calling an iterative solver
           641 MiB given to the printing process from OS
             0 MiB allocation reported by mallinfo(arena+hblkhd)
        324066 MiB available memory on the node where the printing process lives
------------------
     ethr =  5.57E-10,  avg # of iterations =  5.0

     negative rho (up, down):  4.492E-02 0.000E+00

     total cpu time spent up to now is      590.2 secs

     total energy              =    -111.14829678 Ry
     estimated scf accuracy    <       0.00000002 Ry

     iteration #  7     ecut=    60.00 Ry     beta= 0.40
     Davidson diagonalization with overlap

---- Real-time Memory Report at c_bands before calling an iterative solver
           641 MiB given to the printing process from OS
             0 MiB allocation reported by mallinfo(arena+hblkhd)
        324066 MiB available memory on the node where the printing process lives
------------------
     ethr =  9.49E-11,  avg # of iterations =  2.0

     negative rho (up, down):  4.486E-02 0.000E+00

     total cpu time spent up to now is      590.9 secs

     total energy              =    -111.14829682 Ry
     estimated scf accuracy    <          1.6E-09 Ry

     iteration #  8     ecut=    60.00 Ry     beta= 0.40
     Davidson diagonalization with overlap

---- Real-time Memory Report at c_bands before calling an iterative solver
           641 MiB given to the printing process from OS
             0 MiB allocation reported by mallinfo(arena+hblkhd)
        324066 MiB available memory on the node where the printing process lives
------------------
     ethr =  6.35E-12,  avg # of iterations =  5.0

     negative rho (up, down):  4.483E-02 0.000E+00

     total cpu time spent up to now is      591.6 secs

     total energy              =    -111.14829687 Ry
     estimated scf accuracy    <          3.9E-10 Ry

     iteration #  9     ecut=    60.00 Ry     beta= 0.40
     Davidson diagonalization with overlap

---- Real-time Memory Report at c_bands before calling an iterative solver
           641 MiB given to the printing process from OS
             0 MiB allocation reported by mallinfo(arena+hblkhd)
        324065 MiB available memory on the node where the printing process lives
------------------
     ethr =  1.56E-12,  avg # of iterations =  2.0

     negative rho (up, down):  4.481E-02 0.000E+00

     total cpu time spent up to now is      592.3 secs

     End of self-consistent calculation

          k = 0.0000 0.0000 0.0000 ( 95217 PWs)   bands (ev):

   -21.6131 -20.7984 -20.7914 -13.1423 -10.5168 -10.5134  -9.3691  -8.6948
    -8.6871  -8.1866  -8.1830  -7.8267  -5.1522  -1.1327  -0.5641  -0.5394
    -0.4150

     occupation numbers 
     1.0000   1.0000   1.0000   1.0000   1.0000   1.0000   1.0000   1.0000
     1.0000   1.0000   1.0000   1.0000   0.5000   0.0000   0.0000   0.0000
     0.0000

     the Fermi energy is    -5.1244 ev

!    total energy              =    -111.14829694 Ry
     estimated scf accuracy    <          3.5E-11 Ry
     smearing contrib. (-TS)   =      -0.00482420 Ry
     internal energy E=F+TS    =    -111.14347274 Ry

     The total energy is F=E-TS. E is the sum of the following terms:
     one-electron contribution =    -393.92493030 Ry
     hartree contribution      =     199.14833843 Ry
     xc contribution           =     -33.92876779 Ry
     ewald contribution        =     117.56601558 Ry
     Dispersion Correction     =      -0.00412867 Ry
     one-center paw contrib.   =       0.00000000 Ry
      -> PAW hartree energy AE =       0.00000000 Ry
      -> PAW hartree energy PS =       0.00000000 Ry
      -> PAW xc energy AE      =       0.00000000 Ry
      -> PAW xc energy PS      =       0.00000000 Ry
      -> total E_H with PAW    =     199.14833843 Ry
      -> total E_XC with PAW   =     -33.92876779 Ry

     convergence has been achieved in   9 iterations

     negative rho (up, down):  4.481E-02 0.000E+00

     Forces acting on atoms (cartesian axes, Ry/au):

     atom    1 type  3   force =     0.00113504    0.00197989    0.00110650
     atom    2 type  4   force =    -0.00050178   -0.00275226    0.00057038
     atom    3 type  4   force =     0.00000486    0.00007155   -0.00039214
     atom    4 type  4   force =    -0.00063812    0.00070083   -0.00128475
     The non-local contrib.  to forces
     atom    1 type  3   force =    -0.01884480    0.09124900    0.12573848
     atom    2 type  4   force =    -0.04386375   -0.19899879    0.05042162
     atom    3 type  4   force =     0.19688849    0.01436236   -0.06418488
     atom    4 type  4   force =    -0.12687344    0.06615190   -0.15245065
     The ionic contribution  to forces
     atom    1 type  3   force =     0.45870941   -1.97643159   -3.22911906
     atom    2 type  4   force =     1.69954378    5.81642890   -3.88940652
     atom    3 type  4   force =    -6.74753173   -1.09154156    1.47589584
     atom    4 type  4   force =     4.58927854   -2.74845575    5.64262974
     The local contribution  to forces
     atom    1 type  3   force =    -0.43976483    1.89320897    3.11248123
     atom    2 type  4   force =    -1.65624620   -5.62028345    3.83976082
     atom    3 type  4   force =     6.55064204    1.07736191   -1.41196579
     atom    4 type  4   force =    -4.46312755    2.68316070   -5.49137414
     The core correction contribution to forces
     atom    1 type  3   force =     0.00102567   -0.00600835   -0.00796463
     atom    2 type  4   force =    -0.00011726   -0.00043660    0.00010011
     atom    3 type  4   force =     0.00065806    0.00006567   -0.00016788
     atom    4 type  4   force =    -0.00038613    0.00017778   -0.00039407
     The Hubbard contrib.    to forces
     atom    1 type  3   force =     0.00000000    0.00000000    0.00000000
     atom    2 type  4   force =     0.00000000    0.00000000    0.00000000
     atom    3 type  4   force =     0.00000000    0.00000000    0.00000000
     atom    4 type  4   force =     0.00000000    0.00000000    0.00000000
     The SCF correction term to forces
     atom    1 type  3   force =    -0.00000012   -0.00000011   -0.00000046
     atom    2 type  4   force =     0.00000037   -0.00000167   -0.00000460
     atom    3 type  4   force =     0.00000109   -0.00000403    0.00000235
     atom    4 type  4   force =    -0.00000014    0.00000009    0.00000401

     Dispersion contribution to forces:
     atom    1 type  3   force =     0.00000759   -0.00003669   -0.00002869
     atom    2 type  4   force =     0.00017916    0.00054068   -0.00030066
     atom    3 type  4   force =    -0.00065522   -0.00017146    0.00002860
     atom    4 type  4   force =     0.00046847   -0.00033254    0.00030074

     Total force =     0.004158     Total SCF correction =     0.000008

     Total Dispersion Force =     0.001139


     Computing stress (Cartesian axis) and pressure


     negative rho (up, down):  4.481E-02 0.000E+00
          total   stress  (Ry/bohr**3)                   (kbar)     P=       -0.05
  -0.00000008  -0.00000003  -0.00000006           -0.01       -0.00       -0.01
  -0.00000003  -0.00000070   0.00000019           -0.00       -0.10        0.03
  -0.00000006   0.00000019  -0.00000020           -0.01        0.03       -0.03

     kinetic stress (kbar)    145.58     -0.52     -0.74
                               -0.52    147.77      3.37
                               -0.74      3.37    150.09

     local   stress (kbar)  -1949.74    -21.20    -32.91
                              -21.20  -1941.48    137.46
                              -32.91    137.46   1260.68

     nonloc. stress (kbar)    136.30      0.05      0.06
                                0.05    136.04     -0.31
                                0.06     -0.31    135.85

     hartree stress (kbar)    925.55      8.24     13.06
                                8.24    930.14    -53.57
                               13.06    -53.57   -648.77

     exc-cor stress (kbar)     43.46      0.01      0.01
                                0.01     43.42     -0.07
                                0.01     -0.07     43.37

     corecor stress (kbar)    -90.34     -0.01     -0.01
                               -0.01    -90.31      0.04
                               -0.01      0.04    -90.29

     ewald   stress (kbar)    789.16     13.43     20.51
                               13.43    774.31    -86.88
                               20.51    -86.88   -850.98

     hubbard stress (kbar)      0.00      0.00      0.00
                                0.00      0.00      0.00
                                0.00      0.00      0.00

     DFT-D   stress (kbar)      0.02      0.00      0.00
                                0.00      0.01     -0.01
                                0.00     -0.01      0.01

     XDM     stress (kbar)      0.00      0.00      0.00
                                0.00      0.00      0.00
                                0.00      0.00      0.00

     dft-nl  stress (kbar)      0.00      0.00      0.00
                                0.00      0.00      0.00
                                0.00      0.00      0.00

     TS-vdW  stress (kbar)      0.00      0.00      0.00
                                0.00      0.00      0.00
                                0.00      0.00      0.00


                                0.00      0.00      0.00
                                0.00      0.00      0.00


                                0.00      0.00      0.00

     Energy error            =      7.7E-05 Ry
     Gradient error          =      2.8E-03 Ry/Bohr

     number of scf cycles    =  45
     number of bfgs steps    =  44

     energy             old  =    -111.1482201951 Ry
     energy             new  =    -111.1482969415 Ry

     CASE: energy            _new < energy            _old

     new trust radius        =       0.0114974876 bohr
     new conv_thr            =       0.0000000002 Ry


ATOMIC_POSITIONS (angstrom)
Si            5.0780156942        4.4075014819       20.2206532644
Cl            5.5032397356        6.3638237689       19.7508975127
Cl            3.1271316558        4.2788052262       20.8622198178
Cl            6.3236129144        3.7789195230       21.7275094049



     Writing output data file ./out/aiida.save/
     NEW-OLD atomic charge density approx. for the potential

     negative rho (up, down):  4.456E-02 0.000E+00

     total cpu time spent up to now is      601.4 secs

     Self-consistent Calculation

     iteration #  1     ecut=    60.00 Ry     beta= 0.40
     Davidson diagonalization with overlap

---- Real-time Memory Report at c_bands before calling an iterative solver
           641 MiB given to the printing process from OS
             0 MiB allocation reported by mallinfo(arena+hblkhd)
        324067 MiB available memory on the node where the printing process lives
------------------
     ethr =  1.00E-06,  avg # of iterations =  6.0

     negative rho (up, down):  4.459E-02 0.000E+00

     total cpu time spent up to now is      602.1 secs

     total energy              =    -111.14828564 Ry
     estimated scf accuracy    <       0.00003507 Ry

     iteration #  2     ecut=    60.00 Ry     beta= 0.40
     Davidson diagonalization with overlap

---- Real-time Memory Report at c_bands before calling an iterative solver
           641 MiB given to the printing process from OS
             0 MiB allocation reported by mallinfo(arena+hblkhd)
        324065 MiB available memory on the node where the printing process lives
------------------
     ethr =  1.40E-07,  avg # of iterations =  2.0

     negative rho (up, down):  4.461E-02 0.000E+00

     total cpu time spent up to now is      602.8 secs

     total energy              =    -111.14829548 Ry
     estimated scf accuracy    <       0.00000245 Ry

     iteration #  3     ecut=    60.00 Ry     beta= 0.40
     Davidson diagonalization with overlap

---- Real-time Memory Report at c_bands before calling an iterative solver
           641 MiB given to the printing process from OS
             0 MiB allocation reported by mallinfo(arena+hblkhd)
        324068 MiB available memory on the node where the printing process lives
------------------
     ethr =  9.79E-09,  avg # of iterations =  5.0

     negative rho (up, down):  4.462E-02 0.000E+00

     total cpu time spent up to now is      603.5 secs

     total energy              =    -111.14829728 Ry
     estimated scf accuracy    <       0.00000059 Ry

     iteration #  4     ecut=    60.00 Ry     beta= 0.40
     Davidson diagonalization with overlap

---- Real-time Memory Report at c_bands before calling an iterative solver
           641 MiB given to the printing process from OS
             0 MiB allocation reported by mallinfo(arena+hblkhd)
        324065 MiB available memory on the node where the printing process lives
------------------
     ethr =  2.35E-09,  avg # of iterations =  2.0

     negative rho (up, down):  4.463E-02 0.000E+00

     total cpu time spent up to now is      604.2 secs

     total energy              =    -111.14829734 Ry
     estimated scf accuracy    <       0.00000007 Ry

     iteration #  5     ecut=    60.00 Ry     beta= 0.40
     Davidson diagonalization with overlap

---- Real-time Memory Report at c_bands before calling an iterative solver
           641 MiB given to the printing process from OS
             0 MiB allocation reported by mallinfo(arena+hblkhd)
        324065 MiB available memory on the node where the printing process lives
------------------
     ethr =  2.82E-10,  avg # of iterations =  4.0

     negative rho (up, down):  4.463E-02 0.000E+00

     total cpu time spent up to now is      604.9 secs

     total energy              =    -111.14829736 Ry
     estimated scf accuracy    <          9.3E-09 Ry

     iteration #  6     ecut=    60.00 Ry     beta= 0.40
     Davidson diagonalization with overlap

---- Real-time Memory Report at c_bands before calling an iterative solver
           641 MiB given to the printing process from OS
             0 MiB allocation reported by mallinfo(arena+hblkhd)
        324064 MiB available memory on the node where the printing process lives
------------------
     ethr =  3.73E-11,  avg # of iterations =  2.0

     negative rho (up, down):  4.463E-02 0.000E+00

     total cpu time spent up to now is      605.6 secs

     total energy              =    -111.14829736 Ry
     estimated scf accuracy    <          1.2E-09 Ry

     iteration #  7     ecut=    60.00 Ry     beta= 0.40
     Davidson diagonalization with overlap

---- Real-time Memory Report at c_bands before calling an iterative solver
           641 MiB given to the printing process from OS
             0 MiB allocation reported by mallinfo(arena+hblkhd)
        324064 MiB available memory on the node where the printing process lives
------------------
     ethr =  4.95E-12,  avg # of iterations =  2.0

     negative rho (up, down):  4.463E-02 0.000E+00

     total cpu time spent up to now is      606.3 secs

     total energy              =    -111.14829736 Ry
     estimated scf accuracy    <          2.2E-10 Ry

     iteration #  8     ecut=    60.00 Ry     beta= 0.40
     Davidson diagonalization with overlap

---- Real-time Memory Report at c_bands before calling an iterative solver
           641 MiB given to the printing process from OS
             0 MiB allocation reported by mallinfo(arena+hblkhd)
        324064 MiB available memory on the node where the printing process lives
------------------
     ethr =  8.87E-13,  avg # of iterations =  3.0

     negative rho (up, down):  4.463E-02 0.000E+00

     total cpu time spent up to now is      606.9 secs

     End of self-consistent calculation

          k = 0.0000 0.0000 0.0000 ( 95217 PWs)   bands (ev):

   -21.6343 -20.8149 -20.7957 -13.1449 -10.5338 -10.5189  -9.3835  -8.7008
    -8.6998  -8.1966  -8.1819  -7.8271  -5.1247  -1.1005  -0.5462  -0.5082
    -0.4102

     occupation numbers 
     1.0000   1.0000   1.0000   1.0000   1.0000   1.0000   1.0000   1.0000
     1.0000   1.0000   1.0000   1.0000   0.5000   0.0000   0.0000   0.0000
     0.0000

     the Fermi energy is    -5.0969 ev

!    total energy              =    -111.14829736 Ry
     estimated scf accuracy    <          3.6E-11 Ry
     smearing contrib. (-TS)   =      -0.00482420 Ry
     internal energy E=F+TS    =    -111.14347316 Ry

     The total energy is F=E-TS. E is the sum of the following terms:
     one-electron contribution =    -394.26968048 Ry
     hartree contribution      =     199.31892800 Ry
     xc contribution           =     -33.93713038 Ry
     ewald contribution        =     117.74852216 Ry
     Dispersion Correction     =      -0.00411246 Ry
     one-center paw contrib.   =       0.00000000 Ry
      -> PAW hartree energy AE =       0.00000000 Ry
      -> PAW hartree energy PS =       0.00000000 Ry
      -> PAW xc energy AE      =       0.00000000 Ry
      -> PAW xc energy PS      =       0.00000000 Ry
      -> total E_H with PAW    =     199.31892800 Ry
      -> total E_XC with PAW   =     -33.93713038 Ry

     convergence has been achieved in   8 iterations

     negative rho (up, down):  4.463E-02 0.000E+00

     Forces acting on atoms (cartesian axes, Ry/au):

     atom    1 type  3   force =    -0.00212613   -0.00089681   -0.00114394
     atom    2 type  4   force =     0.00062688    0.00159663   -0.00050184
     atom    3 type  4   force =    -0.00045842   -0.00011976   -0.00020455
     atom    4 type  4   force =     0.00195768   -0.00058006    0.00185034
     The non-local contrib.  to forces
     atom    1 type  3   force =    -0.02105805    0.08897582    0.12392907
     atom    2 type  4   force =    -0.04212060   -0.19455322    0.04962932
     atom    3 type  4   force =     0.19676508    0.01402495   -0.06372977
     atom    4 type  4   force =    -0.12402713    0.06501243   -0.14919748
     The ionic contribution  to forces
     atom    1 type  3   force =     0.44750773   -1.99483596   -3.23272556
     atom    2 type  4   force =     1.70470867    5.85972455   -3.90946544
     atom    3 type  4   force =    -6.76617058   -1.09693310    1.47334211
     atom    4 type  4   force =     4.61395419   -2.76795549    5.66884889
     The local contribution  to forces
     atom    1 type  3   force =    -0.43000322    1.91059982    3.11535419
     atom    2 type  4   force =    -1.66196249   -5.66343407    3.85949714
     atom    3 type  4   force =     6.56898608    1.08289915   -1.40968446
     atom    4 type  4   force =    -4.48790783    2.70246348   -5.51752559
     The core correction contribution to forces
     atom    1 type  3   force =     0.00141794   -0.00560250   -0.00767500
     atom    2 type  4   force =    -0.00019325   -0.00073206    0.00017226
     atom    3 type  4   force =     0.00066276    0.00007802   -0.00016889
     atom    4 type  4   force =    -0.00056182    0.00026407   -0.00060799
     The Hubbard contrib.    to forces
     atom    1 type  3   force =     0.00000000    0.00000000    0.00000000
     atom    2 type  4   force =     0.00000000    0.00000000    0.00000000
     atom    3 type  4   force =     0.00000000    0.00000000    0.00000000
     atom    4 type  4   force =     0.00000000    0.00000000    0.00000000
     The SCF correction term to forces
     atom    1 type  3   force =    -0.00000043    0.00000260    0.00000168
     atom    2 type  4   force =    -0.00000429   -0.00000858    0.00000676
     atom    3 type  4   force =     0.00000537    0.00000545    0.00000042
     atom    4 type  4   force =    -0.00000418    0.00000729   -0.00000120

     Dispersion contribution to forces:
     atom    1 type  3   force =     0.00000839   -0.00003592   -0.00002820
     atom    2 type  4   force =     0.00019732    0.00060067   -0.00034175
     atom    3 type  4   force =    -0.00070864   -0.00019358    0.00003614
     atom    4 type  4   force =     0.00050294   -0.00037117    0.00033381

     Total force =     0.004206     Total SCF correction =     0.000017

     Total Dispersion Force =     0.001250


     Computing stress (Cartesian axis) and pressure


     negative rho (up, down):  4.463E-02 0.000E+00
          total   stress  (Ry/bohr**3)                   (kbar)     P=        0.03
   0.00000028   0.00000002   0.00000018            0.04        0.00        0.03
   0.00000002   0.00000003  -0.00000013            0.00        0.00       -0.02
   0.00000018  -0.00000013   0.00000022            0.03       -0.02        0.03

     kinetic stress (kbar)    145.66     -0.50     -0.75
                               -0.50    147.86      3.38
                               -0.75      3.38    150.17

     local   stress (kbar)  -1950.70    -21.10    -33.14
                              -21.10  -1942.21    138.04
                              -33.14    138.04   1260.18

     nonloc. stress (kbar)    136.31      0.05      0.08
                                0.05    136.08     -0.33
                                0.08     -0.33    135.87

     hartree stress (kbar)    926.05      8.21     13.09
                                8.21    930.42    -53.73
                               13.09    -53.73   -648.52

     exc-cor stress (kbar)     43.45      0.01      0.02
                                0.01     43.41     -0.07
                                0.02     -0.07     43.36

     corecor stress (kbar)    -90.35     -0.01     -0.01
                               -0.01    -90.32      0.04
                               -0.01      0.04    -90.29

     ewald   stress (kbar)    789.59     13.34     20.74
                               13.34    774.77    -87.35
                               20.74    -87.35   -850.75

     hubbard stress (kbar)      0.00      0.00      0.00
                                0.00      0.00      0.00
                                0.00      0.00      0.00

     DFT-D   stress (kbar)      0.02      0.00      0.00
                                0.00      0.01     -0.01
                                0.00     -0.01      0.01

     XDM     stress (kbar)      0.00      0.00      0.00
                                0.00      0.00      0.00
                                0.00      0.00      0.00

     dft-nl  stress (kbar)      0.00      0.00      0.00
                                0.00      0.00      0.00
                                0.00      0.00      0.00

     TS-vdW  stress (kbar)      0.00      0.00      0.00
                                0.00      0.00      0.00
                                0.00      0.00      0.00


                                0.00      0.00      0.00
                                0.00      0.00      0.00


                                0.00      0.00      0.00

     Energy error            =      4.2E-07 Ry
     Gradient error          =      2.1E-03 Ry/Bohr

     number of scf cycles    =  46
     number of bfgs steps    =  45

     energy             old  =    -111.1482969415 Ry
     energy             new  =    -111.1482973597 Ry

     CASE: energy            _new > energy            _old

     new trust radius        =       0.0057891719 bohr
     new conv_thr            =       0.0000000002 Ry


ATOMIC_POSITIONS (angstrom)
Si            5.0766884782        4.4068817280       20.2197423919
Cl            5.5042690189        6.3665749891       19.7501932003
Cl            3.1262163582        4.2780304215       20.8626203953
Cl            6.3248261447        3.7775628613       21.7287240123



     Writing output data file ./out/aiida.save/
     NEW-OLD atomic charge density approx. for the potential

     negative rho (up, down):  4.476E-02 0.000E+00

     total cpu time spent up to now is      614.7 secs

     Self-consistent Calculation

     iteration #  1     ecut=    60.00 Ry     beta= 0.40
     Davidson diagonalization with overlap

---- Real-time Memory Report at c_bands before calling an iterative solver
           641 MiB given to the printing process from OS
             0 MiB allocation reported by mallinfo(arena+hblkhd)
        324073 MiB available memory on the node where the printing process lives
------------------
     ethr =  1.00E-06,  avg # of iterations =  3.0

     Threshold (ethr) on eigenvalues was too large:
     Diagonalizing with lowered threshold

     Davidson diagonalization with overlap

---- Real-time Memory Report at c_bands before calling an iterative solver
           641 MiB given to the printing process from OS
             0 MiB allocation reported by mallinfo(arena+hblkhd)
        324065 MiB available memory on the node where the printing process lives
------------------
     ethr =  2.29E-08,  avg # of iterations =  5.0

     negative rho (up, down):  4.475E-02 0.000E+00

     total cpu time spent up to now is      615.8 secs

     total energy              =    -111.14830949 Ry
     estimated scf accuracy    <       0.00001121 Ry

     iteration #  2     ecut=    60.00 Ry     beta= 0.40
     Davidson diagonalization with overlap

---- Real-time Memory Report at c_bands before calling an iterative solver
           641 MiB given to the printing process from OS
             0 MiB allocation reported by mallinfo(arena+hblkhd)
        324067 MiB available memory on the node where the printing process lives
------------------
     ethr =  4.49E-08,  avg # of iterations =  2.0

     negative rho (up, down):  4.474E-02 0.000E+00

     total cpu time spent up to now is      616.5 secs

     total energy              =    -111.14831203 Ry
     estimated scf accuracy    <       0.00000083 Ry

     iteration #  3     ecut=    60.00 Ry     beta= 0.40
     Davidson diagonalization with overlap

---- Real-time Memory Report at c_bands before calling an iterative solver
           641 MiB given to the printing process from OS
             0 MiB allocation reported by mallinfo(arena+hblkhd)
        324063 MiB available memory on the node where the printing process lives
------------------
     ethr =  3.33E-09,  avg # of iterations =  1.0

     negative rho (up, down):  4.473E-02 0.000E+00

     total cpu time spent up to now is      617.1 secs

     total energy              =    -111.14831206 Ry
     estimated scf accuracy    <       0.00000016 Ry

     iteration #  4     ecut=    60.00 Ry     beta= 0.40
     Davidson diagonalization with overlap

---- Real-time Memory Report at c_bands before calling an iterative solver
           641 MiB given to the printing process from OS
             0 MiB allocation reported by mallinfo(arena+hblkhd)
        324063 MiB available memory on the node where the printing process lives
------------------
     ethr =  6.25E-10,  avg # of iterations =  2.0

     negative rho (up, down):  4.473E-02 0.000E+00

     total cpu time spent up to now is      617.8 secs

     total energy              =    -111.14831207 Ry
     estimated scf accuracy    <       0.00000002 Ry

     iteration #  5     ecut=    60.00 Ry     beta= 0.40
     Davidson diagonalization with overlap

---- Real-time Memory Report at c_bands before calling an iterative solver
           641 MiB given to the printing process from OS
             0 MiB allocation reported by mallinfo(arena+hblkhd)
        324063 MiB available memory on the node where the printing process lives
------------------
     ethr =  6.71E-11,  avg # of iterations =  2.0

     negative rho (up, down):  4.473E-02 0.000E+00

     total cpu time spent up to now is      618.5 secs

     total energy              =    -111.14831207 Ry
     estimated scf accuracy    <          1.5E-09 Ry

     iteration #  6     ecut=    60.00 Ry     beta= 0.40
     Davidson diagonalization with overlap

---- Real-time Memory Report at c_bands before calling an iterative solver
           641 MiB given to the printing process from OS
             0 MiB allocation reported by mallinfo(arena+hblkhd)
        324063 MiB available memory on the node where the printing process lives
------------------
     ethr =  6.10E-12,  avg # of iterations =  5.0

     negative rho (up, down):  4.473E-02 0.000E+00

     total cpu time spent up to now is      619.2 secs

     End of self-consistent calculation

          k = 0.0000 0.0000 0.0000 ( 95217 PWs)   bands (ev):

   -21.6236 -20.8032 -20.7972 -13.1436 -10.5244 -10.5171  -9.3762  -8.6975
    -8.6938  -8.1911  -8.1830  -7.8270  -5.1384  -1.1164  -0.5548  -0.5240
    -0.4127

     occupation numbers 
     1.0000   1.0000   1.0000   1.0000   1.0000   1.0000   1.0000   1.0000
     1.0000   1.0000   1.0000   1.0000   0.5000   0.0000   0.0000   0.0000
     0.0000

     the Fermi energy is    -5.1105 ev

!    total energy              =    -111.14831208 Ry
     estimated scf accuracy    <          1.2E-10 Ry
     smearing contrib. (-TS)   =      -0.00482420 Ry
     internal energy E=F+TS    =    -111.14348789 Ry

     The total energy is F=E-TS. E is the sum of the following terms:
     one-electron contribution =    -394.09831537 Ry
     hartree contribution      =     199.23413717 Ry
     xc contribution           =     -33.93296800 Ry
     ewald contribution        =     117.65777903 Ry
     Dispersion Correction     =      -0.00412071 Ry
     one-center paw contrib.   =       0.00000000 Ry
      -> PAW hartree energy AE =       0.00000000 Ry
      -> PAW hartree energy PS =       0.00000000 Ry
      -> PAW xc energy AE      =       0.00000000 Ry
      -> PAW xc energy PS      =       0.00000000 Ry
      -> total E_H with PAW    =     199.23413717 Ry
      -> total E_XC with PAW   =     -33.93296800 Ry

     convergence has been achieved in   6 iterations

     negative rho (up, down):  4.473E-02 0.000E+00

     Forces acting on atoms (cartesian axes, Ry/au):

     atom    1 type  3   force =    -0.00049353    0.00054364   -0.00001855
     atom    2 type  4   force =     0.00006402   -0.00058290    0.00003665
     atom    3 type  4   force =    -0.00022622   -0.00002376   -0.00029607
     atom    4 type  4   force =     0.00065573    0.00006302    0.00027797
     The non-local contrib.  to forces
     atom    1 type  3   force =    -0.01994683    0.09011718    0.12483457
     atom    2 type  4   force =    -0.04299686   -0.19678547    0.05002832
     atom    3 type  4   force =     0.19682549    0.01419557   -0.06395977
     atom    4 type  4   force =    -0.12545393    0.06558392   -0.15082819
     The ionic contribution  to forces
     atom    1 type  3   force =     0.45307551   -1.98567989   -3.23092891
     atom    2 type  4   force =     1.70214953    5.83818898   -3.89947640
     atom    3 type  4   force =    -6.75690633   -1.09425338    1.47460771
     atom    4 type  4   force =     4.60168129   -2.75825571    5.65579760
     The local contribution  to forces
     atom    1 type  3   force =    -0.43485628    1.90194843    3.11392309
     atom    2 type  4   force =    -1.65912107   -5.64196566    3.84966691
     atom    3 type  4   force =     6.55987936    1.08014466   -1.41081171
     atom    4 type  4   force =    -4.47558337    2.69286537   -5.50450785
     The core correction contribution to forces
     atom    1 type  3   force =     0.00122146   -0.00580587   -0.00781979
     atom    2 type  4   force =    -0.00015502   -0.00058412    0.00013619
     atom    3 type  4   force =     0.00066051    0.00007166   -0.00016814
     atom    4 type  4   force =    -0.00047395    0.00022092   -0.00050100
     The Hubbard contrib.    to forces
     atom    1 type  3   force =     0.00000000    0.00000000    0.00000000
     atom    2 type  4   force =     0.00000000    0.00000000    0.00000000
     atom    3 type  4   force =     0.00000000    0.00000000    0.00000000
     atom    4 type  4   force =     0.00000000    0.00000000    0.00000000
     The SCF correction term to forces
     atom    1 type  3   force =     0.00000363    0.00000142    0.00000091
     atom    2 type  4   force =    -0.00000185   -0.00000619    0.00000295
     atom    3 type  4   force =    -0.00000410    0.00000166    0.00000341
     atom    4 type  4   force =    -0.00000111    0.00000184   -0.00000000

     Dispersion contribution to forces:
     atom    1 type  3   force =     0.00000799   -0.00003630   -0.00002844
     atom    2 type  4   force =     0.00018831    0.00057090   -0.00032135
     atom    3 type  4   force =    -0.00068213   -0.00018261    0.00003240
     atom    4 type  4   force =     0.00048582   -0.00035200    0.00031739

     Total force =     0.001239     Total SCF correction =     0.000010

     Total Dispersion Force =     0.001195


     Computing stress (Cartesian axis) and pressure


     negative rho (up, down):  4.473E-02 0.000E+00
          total   stress  (Ry/bohr**3)                   (kbar)     P=       -0.01
   0.00000010  -0.00000000   0.00000006            0.01       -0.00        0.01
  -0.00000000  -0.00000033   0.00000003           -0.00       -0.05        0.00
   0.00000006   0.00000003   0.00000001            0.01        0.00        0.00

     kinetic stress (kbar)    145.62     -0.51     -0.74
                               -0.51    147.81      3.38
                               -0.74      3.38    150.13

     local   stress (kbar)  -1950.22    -21.15    -33.03
                              -21.15  -1941.85    137.75
                              -33.03    137.75   1260.43

     nonloc. stress (kbar)    136.30      0.05      0.07
                                0.05    136.06     -0.32
                                0.07     -0.32    135.86

     hartree stress (kbar)    925.81      8.22     13.07
                                8.22    930.28    -53.65
                               13.07    -53.65   -648.64

     exc-cor stress (kbar)     43.46      0.01      0.02
                                0.01     43.41     -0.07
                                0.02     -0.07     43.37

     corecor stress (kbar)    -90.35     -0.01     -0.01
                               -0.01    -90.32      0.04
                               -0.01      0.04    -90.29

     ewald   stress (kbar)    789.38     13.38     20.62
                               13.38    774.54    -87.12
                               20.62    -87.12   -850.86

     hubbard stress (kbar)      0.00      0.00      0.00
                                0.00      0.00      0.00
                                0.00      0.00      0.00

     DFT-D   stress (kbar)      0.02      0.00      0.00
                                0.00      0.01     -0.01
                                0.00     -0.01      0.01

     XDM     stress (kbar)      0.00      0.00      0.00
                                0.00      0.00      0.00
                                0.00      0.00      0.00

     dft-nl  stress (kbar)      0.00      0.00      0.00
                                0.00      0.00      0.00
                                0.00      0.00      0.00

     TS-vdW  stress (kbar)      0.00      0.00      0.00
                                0.00      0.00      0.00
                                0.00      0.00      0.00


                                0.00      0.00      0.00
                                0.00      0.00      0.00


                                0.00      0.00      0.00

     Energy error            =      1.5E-05 Ry
     Gradient error          =      6.6E-04 Ry/Bohr

     number of scf cycles    =  47
     number of bfgs steps    =  45

     energy             old  =    -111.1482969415 Ry
     energy             new  =    -111.1483120839 Ry

     CASE: energy            _new < energy            _old

     new trust radius        =       0.0173675156 bohr
     new conv_thr            =       0.0000000002 Ry


ATOMIC_POSITIONS (angstrom)
Si            5.0777429921        4.4050878326       20.2212413605
Cl            5.5017221209        6.3633117085       19.7428171510
Cl            3.1268675391        4.2758868518       20.8628488650
Cl            6.3256673479        3.7847636071       21.7343726234



     Writing output data file ./out/aiida.save/
     NEW-OLD atomic charge density approx. for the potential

     negative rho (up, down):  4.465E-02 0.000E+00

     total cpu time spent up to now is      626.9 secs

     Self-consistent Calculation

     iteration #  1     ecut=    60.00 Ry     beta= 0.40
     Davidson diagonalization with overlap

---- Real-time Memory Report at c_bands before calling an iterative solver
           641 MiB given to the printing process from OS
             0 MiB allocation reported by mallinfo(arena+hblkhd)
        324071 MiB available memory on the node where the printing process lives
------------------
     ethr =  1.00E-06,  avg # of iterations =  6.0

     Threshold (ethr) on eigenvalues was too large:
     Diagonalizing with lowered threshold

     Davidson diagonalization with overlap

---- Real-time Memory Report at c_bands before calling an iterative solver
           641 MiB given to the printing process from OS
             0 MiB allocation reported by mallinfo(arena+hblkhd)
        324062 MiB available memory on the node where the printing process lives
------------------
     ethr =  2.47E-08,  avg # of iterations =  4.0

     negative rho (up, down):  4.464E-02 0.000E+00

     total cpu time spent up to now is      628.0 secs

     total energy              =    -111.14831625 Ry
     estimated scf accuracy    <       0.00000609 Ry

     iteration #  2     ecut=    60.00 Ry     beta= 0.40
     Davidson diagonalization with overlap

---- Real-time Memory Report at c_bands before calling an iterative solver
           641 MiB given to the printing process from OS
             0 MiB allocation reported by mallinfo(arena+hblkhd)
        324062 MiB available memory on the node where the printing process lives
------------------
     ethr =  2.43E-08,  avg # of iterations =  1.0

     negative rho (up, down):  4.466E-02 0.000E+00

     total cpu time spent up to now is      628.7 secs

     total energy              =    -111.14831632 Ry
     estimated scf accuracy    <       0.00000145 Ry

     iteration #  3     ecut=    60.00 Ry     beta= 0.40
     Davidson diagonalization with overlap

---- Real-time Memory Report at c_bands before calling an iterative solver
           641 MiB given to the printing process from OS
             0 MiB allocation reported by mallinfo(arena+hblkhd)
        324064 MiB available memory on the node where the printing process lives
------------------
     ethr =  5.82E-09,  avg # of iterations =  1.0

     negative rho (up, down):  4.466E-02 0.000E+00

     total cpu time spent up to now is      629.4 secs

     total energy              =    -111.14831639 Ry
     estimated scf accuracy    <       0.00000015 Ry

     iteration #  4     ecut=    60.00 Ry     beta= 0.40
     Davidson diagonalization with overlap

---- Real-time Memory Report at c_bands before calling an iterative solver
           641 MiB given to the printing process from OS
             0 MiB allocation reported by mallinfo(arena+hblkhd)
        324062 MiB available memory on the node where the printing process lives
------------------
     ethr =  6.15E-10,  avg # of iterations =  2.0

     negative rho (up, down):  4.465E-02 0.000E+00

     total cpu time spent up to now is      630.1 secs

     total energy              =    -111.14831640 Ry
     estimated scf accuracy    <       0.00000001 Ry

     iteration #  5     ecut=    60.00 Ry     beta= 0.40
     Davidson diagonalization with overlap

---- Real-time Memory Report at c_bands before calling an iterative solver
           641 MiB given to the printing process from OS
             0 MiB allocation reported by mallinfo(arena+hblkhd)
        324062 MiB available memory on the node where the printing process lives
------------------
     ethr =  5.47E-11,  avg # of iterations =  2.0

     negative rho (up, down):  4.464E-02 0.000E+00

     total cpu time spent up to now is      630.7 secs

     total energy              =    -111.14831639 Ry
     estimated scf accuracy    <          1.2E-09 Ry

     iteration #  6     ecut=    60.00 Ry     beta= 0.40
     Davidson diagonalization with overlap

---- Real-time Memory Report at c_bands before calling an iterative solver
           641 MiB given to the printing process from OS
             0 MiB allocation reported by mallinfo(arena+hblkhd)
        324061 MiB available memory on the node where the printing process lives
------------------
     ethr =  4.80E-12,  avg # of iterations =  4.0

     negative rho (up, down):  4.464E-02 0.000E+00

     total cpu time spent up to now is      631.4 secs

     End of self-consistent calculation

          k = 0.0000 0.0000 0.0000 ( 95217 PWs)   bands (ev):

   -21.6236 -20.8035 -20.7971 -13.1437 -10.5248 -10.5169  -9.3763  -8.6978
    -8.6937  -8.1915  -8.1830  -7.8272  -5.1386  -1.1167  -0.5552  -0.5240
    -0.4130

     occupation numbers 
     1.0000   1.0000   1.0000   1.0000   1.0000   1.0000   1.0000   1.0000
     1.0000   1.0000   1.0000   1.0000   0.5000   0.0000   0.0000   0.0000
     0.0000

     the Fermi energy is    -5.1108 ev

!    total energy              =    -111.14831639 Ry
     estimated scf accuracy    <          1.3E-10 Ry
     smearing contrib. (-TS)   =      -0.00482420 Ry
     internal energy E=F+TS    =    -111.14349220 Ry

     The total energy is F=E-TS. E is the sum of the following terms:
     one-electron contribution =    -394.02577263 Ry
     hartree contribution      =     199.19771362 Ry
     xc contribution           =     -33.93289295 Ry
     ewald contribution        =     117.62157991 Ry
     Dispersion Correction     =      -0.00412015 Ry
     one-center paw contrib.   =       0.00000000 Ry
      -> PAW hartree energy AE =       0.00000000 Ry
      -> PAW hartree energy PS =       0.00000000 Ry
      -> PAW xc energy AE      =       0.00000000 Ry
      -> PAW xc energy PS      =       0.00000000 Ry
      -> total E_H with PAW    =     199.19771362 Ry
      -> total E_XC with PAW   =     -33.93289295 Ry

     convergence has been achieved in   6 iterations

     negative rho (up, down):  4.464E-02 0.000E+00

     Forces acting on atoms (cartesian axes, Ry/au):

     atom    1 type  3   force =    -0.00048157    0.00045604    0.00005239
     atom    2 type  4   force =     0.00011528   -0.00053278    0.00004483
     atom    3 type  4   force =    -0.00022182   -0.00004762   -0.00028912
     atom    4 type  4   force =     0.00058811    0.00012436    0.00019190
     The non-local contrib.  to forces
     atom    1 type  3   force =    -0.02017275    0.09059658    0.12447709
     atom    2 type  4   force =    -0.04255517   -0.19657418    0.05092580
     atom    3 type  4   force =     0.19688021    0.01419389   -0.06381801
     atom    4 type  4   force =    -0.12549281    0.06476062   -0.15133281
     The ionic contribution  to forces
     atom    1 type  3   force =     0.46093877   -1.99881171   -3.21838812
     atom    2 type  4   force =     1.69312453    5.83156446   -3.93486137
     atom    3 type  4   force =    -6.75594173   -1.10055193    1.47459287
     atom    4 type  4   force =     4.60187843   -2.73220081    5.67865662
     The local contribution  to forces
     atom    1 type  3   force =    -0.44248403    1.91453378    3.10180211
     atom    2 type  4   force =    -1.65048410   -5.63550763    3.88416304
     atom    3 type  4   force =     6.55886377    1.08641658   -1.41092457
     atom    4 type  4   force =    -4.47581368    2.66770057   -5.52694368
     The core correction contribution to forces
     atom    1 type  3   force =     0.00122820   -0.00582786   -0.00780718
     atom    2 type  4   force =    -0.00015718   -0.00058793    0.00013920
     atom    3 type  4   force =     0.00065979    0.00007350   -0.00016854
     atom    4 type  4   force =    -0.00046917    0.00021408   -0.00049628
     The Hubbard contrib.    to forces
     atom    1 type  3   force =     0.00000000    0.00000000    0.00000000
     atom    2 type  4   force =     0.00000000    0.00000000    0.00000000
     atom    3 type  4   force =     0.00000000    0.00000000    0.00000000
     atom    4 type  4   force =     0.00000000    0.00000000    0.00000000
     The SCF correction term to forces
     atom    1 type  3   force =    -0.00000112    0.00000281   -0.00000352
     atom    2 type  4   force =    -0.00000391    0.00000483    0.00000071
     atom    3 type  4   force =    -0.00000277    0.00000668   -0.00000492
     atom    4 type  4   force =    -0.00000053   -0.00000172   -0.00001001

     Dispersion contribution to forces:
     atom    1 type  3   force =     0.00000805   -0.00003641   -0.00002838
     atom    2 type  4   force =     0.00018979    0.00056883   -0.00032294
     atom    3 type  4   force =    -0.00068240   -0.00018518    0.00003365
     atom    4 type  4   force =     0.00048456   -0.00034724    0.00031767

     Total force =     0.001129     Total SCF correction =     0.000016

     Total Dispersion Force =     0.001193


     Computing stress (Cartesian axis) and pressure


     negative rho (up, down):  4.464E-02 0.000E+00
          total   stress  (Ry/bohr**3)                   (kbar)     P=       -0.01
   0.00000010   0.00000001   0.00000005            0.01        0.00        0.01
   0.00000001  -0.00000033   0.00000003            0.00       -0.05        0.00
   0.00000005   0.00000003  -0.00000000            0.01        0.00       -0.00

     kinetic stress (kbar)    145.62     -0.52     -0.75
                               -0.52    147.84      3.39
                               -0.75      3.39    150.10

     local   stress (kbar)  -1949.67    -21.52    -33.35
                              -21.52  -1939.77    138.18
                              -33.35    138.18   1258.24

     nonloc. stress (kbar)    136.30      0.05      0.07
                                0.05    136.06     -0.32
                                0.07     -0.32    135.86

     hartree stress (kbar)    925.55      8.36     13.20
                                8.36    929.38    -53.82
                               13.20    -53.82   -647.70

     exc-cor stress (kbar)     43.46      0.01      0.02
                                0.01     43.41     -0.07
                                0.02     -0.07     43.37

     corecor stress (kbar)    -90.35     -0.01     -0.01
                               -0.01    -90.31      0.04
                               -0.01      0.04    -90.29

     ewald   stress (kbar)    789.08     13.62     20.83
                               13.62    773.34    -87.39
                               20.83    -87.39   -849.58

     hubbard stress (kbar)      0.00      0.00      0.00
                                0.00      0.00      0.00
                                0.00      0.00      0.00

     DFT-D   stress (kbar)      0.02      0.00      0.00
                                0.00      0.01     -0.01
                                0.00     -0.01      0.01

     XDM     stress (kbar)      0.00      0.00      0.00
                                0.00      0.00      0.00
                                0.00      0.00      0.00

     dft-nl  stress (kbar)      0.00      0.00      0.00
                                0.00      0.00      0.00
                                0.00      0.00      0.00

     TS-vdW  stress (kbar)      0.00      0.00      0.00
                                0.00      0.00      0.00
                                0.00      0.00      0.00


                                0.00      0.00      0.00
                                0.00      0.00      0.00


                                0.00      0.00      0.00

     Energy error            =      4.3E-06 Ry
     Gradient error          =      5.9E-04 Ry/Bohr

     number of scf cycles    =  48
     number of bfgs steps    =  46

     energy             old  =    -111.1483120839 Ry
     energy             new  =    -111.1483163950 Ry

     CASE: energy            _new < energy            _old

     new trust radius        =       0.0260512734 bohr
     new conv_thr            =       0.0000000002 Ry


ATOMIC_POSITIONS (angstrom)
Si            5.0792135688        4.4023967712       20.2235452703
Cl            5.4981351291        6.3583859102       19.7318572415
Cl            3.1277193206        4.2725915118       20.8631759252
Cl            6.3269319815        3.7956758068       21.7427015628



     Writing output data file ./out/aiida.save/
     NEW-OLD atomic charge density approx. for the potential

     negative rho (up, down):  4.448E-02 0.000E+00

     total cpu time spent up to now is      639.2 secs

     Self-consistent Calculation

     iteration #  1     ecut=    60.00 Ry     beta= 0.40
     Davidson diagonalization with overlap

---- Real-time Memory Report at c_bands before calling an iterative solver
           641 MiB given to the printing process from OS
             0 MiB allocation reported by mallinfo(arena+hblkhd)
        324068 MiB available memory on the node where the printing process lives
------------------
     ethr =  1.00E-06,  avg # of iterations =  7.0

     Threshold (ethr) on eigenvalues was too large:
     Diagonalizing with lowered threshold

     Davidson diagonalization with overlap

---- Real-time Memory Report at c_bands before calling an iterative solver
           641 MiB given to the printing process from OS
             0 MiB allocation reported by mallinfo(arena+hblkhd)
        324060 MiB available memory on the node where the printing process lives
------------------
     ethr =  5.38E-08,  avg # of iterations =  4.0

     negative rho (up, down):  4.447E-02 0.000E+00

     total cpu time spent up to now is      640.3 secs

     total energy              =    -111.14832218 Ry
     estimated scf accuracy    <       0.00001345 Ry

     iteration #  2     ecut=    60.00 Ry     beta= 0.40
     Davidson diagonalization with overlap

---- Real-time Memory Report at c_bands before calling an iterative solver
           641 MiB given to the printing process from OS
             0 MiB allocation reported by mallinfo(arena+hblkhd)
        324060 MiB available memory on the node where the printing process lives
------------------
     ethr =  5.38E-08,  avg # of iterations =  1.0

     negative rho (up, down):  4.450E-02 0.000E+00

     total cpu time spent up to now is      641.0 secs

     total energy              =    -111.14832240 Ry
     estimated scf accuracy    <       0.00000322 Ry

     iteration #  3     ecut=    60.00 Ry     beta= 0.40
     Davidson diagonalization with overlap

---- Real-time Memory Report at c_bands before calling an iterative solver
           641 MiB given to the printing process from OS
             0 MiB allocation reported by mallinfo(arena+hblkhd)
        324060 MiB available memory on the node where the printing process lives
------------------
     ethr =  1.29E-08,  avg # of iterations =  2.0

     negative rho (up, down):  4.451E-02 0.000E+00

     total cpu time spent up to now is      641.7 secs

     total energy              =    -111.14832263 Ry
     estimated scf accuracy    <       0.00000034 Ry

     iteration #  4     ecut=    60.00 Ry     beta= 0.40
     Davidson diagonalization with overlap

---- Real-time Memory Report at c_bands before calling an iterative solver
           641 MiB given to the printing process from OS
             0 MiB allocation reported by mallinfo(arena+hblkhd)
        324059 MiB available memory on the node where the printing process lives
------------------
     ethr =  1.35E-09,  avg # of iterations =  4.0

     negative rho (up, down):  4.449E-02 0.000E+00

     total cpu time spent up to now is      642.4 secs

     total energy              =    -111.14832268 Ry
     estimated scf accuracy    <       0.00000003 Ry

     iteration #  5     ecut=    60.00 Ry     beta= 0.40
     Davidson diagonalization with overlap

---- Real-time Memory Report at c_bands before calling an iterative solver
           641 MiB given to the printing process from OS
             0 MiB allocation reported by mallinfo(arena+hblkhd)
        324057 MiB available memory on the node where the printing process lives
------------------
     ethr =  1.28E-10,  avg # of iterations =  4.0

     negative rho (up, down):  4.447E-02 0.000E+00

     total cpu time spent up to now is      643.1 secs

     total energy              =    -111.14832268 Ry
     estimated scf accuracy    <          3.0E-09 Ry

     iteration #  6     ecut=    60.00 Ry     beta= 0.40
     Davidson diagonalization with overlap

---- Real-time Memory Report at c_bands before calling an iterative solver
           641 MiB given to the printing process from OS
             0 MiB allocation reported by mallinfo(arena+hblkhd)
        324054 MiB available memory on the node where the printing process lives
------------------
     ethr =  1.18E-11,  avg # of iterations =  2.0

     negative rho (up, down):  4.447E-02 0.000E+00

     total cpu time spent up to now is      643.7 secs

     total energy              =    -111.14832268 Ry
     estimated scf accuracy    <          5.3E-10 Ry

     iteration #  7     ecut=    60.00 Ry     beta= 0.40
     Davidson diagonalization with overlap

---- Real-time Memory Report at c_bands before calling an iterative solver
           641 MiB given to the printing process from OS
             0 MiB allocation reported by mallinfo(arena+hblkhd)
        324053 MiB available memory on the node where the printing process lives
------------------
     ethr =  2.11E-12,  avg # of iterations =  4.0

     negative rho (up, down):  4.446E-02 0.000E+00

     total cpu time spent up to now is      644.4 secs

     End of self-consistent calculation

          k = 0.0000 0.0000 0.0000 ( 95217 PWs)   bands (ev):

   -21.6235 -20.8037 -20.7972 -13.1439 -10.5250 -10.5169  -9.3762  -8.6982
    -8.6935  -8.1919  -8.1832  -7.8275  -5.1389  -1.1177  -0.5554  -0.5246
    -0.4134

     occupation numbers 
     1.0000   1.0000   1.0000   1.0000   1.0000   1.0000   1.0000   1.0000
     1.0000   1.0000   1.0000   1.0000   0.5000   0.0000   0.0000   0.0000
     0.0000

     the Fermi energy is    -5.1111 ev

!    total energy              =    -111.14832269 Ry
     estimated scf accuracy    <          5.6E-11 Ry
     smearing contrib. (-TS)   =      -0.00482420 Ry
     internal energy E=F+TS    =    -111.14349849 Ry

     The total energy is F=E-TS. E is the sum of the following terms:
     one-electron contribution =    -393.91457852 Ry
     hartree contribution      =     199.14188370 Ry
     xc contribution           =     -33.93272378 Ry
     ewald contribution        =     117.56603964 Ry
     Dispersion Correction     =      -0.00411954 Ry
     one-center paw contrib.   =       0.00000000 Ry
      -> PAW hartree energy AE =       0.00000000 Ry
      -> PAW hartree energy PS =       0.00000000 Ry
      -> PAW xc energy AE      =       0.00000000 Ry
      -> PAW xc energy PS      =       0.00000000 Ry
      -> total E_H with PAW    =     199.14188370 Ry
      -> total E_XC with PAW   =     -33.93272378 Ry

     convergence has been achieved in   7 iterations

     negative rho (up, down):  4.446E-02 0.000E+00

     Forces acting on atoms (cartesian axes, Ry/au):

     atom    1 type  3   force =    -0.00043022    0.00038490    0.00012983
     atom    2 type  4   force =     0.00015713   -0.00051585    0.00007023
     atom    3 type  4   force =    -0.00020054   -0.00007021   -0.00026972
     atom    4 type  4   force =     0.00047362    0.00020116    0.00006966
     The non-local contrib.  to forces
     atom    1 type  3   force =    -0.02051692    0.09137027    0.12393693
     atom    2 type  4   force =    -0.04198289   -0.19631580    0.05226861
     atom    3 type  4   force =     0.19696765    0.01422952   -0.06358760
     atom    4 type  4   force =    -0.12558899    0.06348801   -0.15204287
     The ionic contribution  to forces
     atom    1 type  3   force =     0.47202591   -2.01788086   -3.19937704
     atom    2 type  4   force =     1.67991300    5.82079412   -3.98731720
     atom    3 type  4   force =    -6.75410916   -1.10995767    1.47432108
     atom    4 type  4   force =     4.60217025   -2.69295559    5.71237316
     The local contribution  to forces
     atom    1 type  3   force =    -0.45318805    1.93280194    3.08338875
     atom    2 type  4   force =    -1.63780153   -5.62496474    3.93531105
     atom    3 type  4   force =     6.55696609    1.09576393   -1.41086145
     atom    4 type  4   force =    -4.47613388    2.62980089   -5.56009393
     The core correction contribution to forces
     atom    1 type  3   force =     0.00124058   -0.00587128   -0.00778744
     atom    2 type  4   force =    -0.00015834   -0.00058837    0.00014324
     atom    3 type  4   force =     0.00065873    0.00007498   -0.00016929
     atom    4 type  4   force =    -0.00046144    0.00020490   -0.00049079
     The Hubbard contrib.    to forces
     atom    1 type  3   force =     0.00000000    0.00000000    0.00000000
     atom    2 type  4   force =     0.00000000    0.00000000    0.00000000
     atom    3 type  4   force =     0.00000000    0.00000000    0.00000000
     atom    4 type  4   force =     0.00000000    0.00000000    0.00000000
     The SCF correction term to forces
     atom    1 type  3   force =    -0.00000121    0.00000287   -0.00000338
     atom    2 type  4   force =    -0.00000525   -0.00000506   -0.00001051
     atom    3 type  4   force =    -0.00000404    0.00000868   -0.00000797
     atom    4 type  4   force =     0.00000414    0.00000503    0.00000549

     Dispersion contribution to forces:
     atom    1 type  3   force =     0.00000813   -0.00003660   -0.00002828
     atom    2 type  4   force =     0.00019081    0.00056543   -0.00032525
     atom    3 type  4   force =    -0.00068114   -0.00018820    0.00003522
     atom    4 type  4   force =     0.00048221   -0.00034063    0.00031831

     Total force =     0.001017     Total SCF correction =     0.000020

     Total Dispersion Force =     0.001189


     Computing stress (Cartesian axis) and pressure


     negative rho (up, down):  4.446E-02 0.000E+00
          total   stress  (Ry/bohr**3)                   (kbar)     P=       -0.01
   0.00000008   0.00000002   0.00000004            0.01        0.00        0.01
   0.00000002  -0.00000033   0.00000004            0.00       -0.05        0.01
   0.00000004   0.00000004  -0.00000002            0.01        0.01       -0.00

     kinetic stress (kbar)    145.63     -0.53     -0.77
                               -0.53    147.88      3.40
                               -0.77      3.40    150.05

     local   stress (kbar)  -1948.86    -22.10    -33.84
                              -22.10  -1936.63    138.79
                              -33.84    138.79   1254.97

     nonloc. stress (kbar)    136.30      0.05      0.07
                                0.05    136.05     -0.32
                                0.07     -0.32    135.87

     hartree stress (kbar)    925.16      8.59     13.40
                                8.59    928.02    -54.07
                               13.40    -54.07   -646.30

     exc-cor stress (kbar)     43.46      0.01      0.02
                                0.01     43.41     -0.07
                                0.02     -0.07     43.37

     corecor stress (kbar)    -90.35     -0.01     -0.01
                               -0.01    -90.31      0.04
                               -0.01      0.04    -90.29

     ewald   stress (kbar)    788.65     13.98     21.13
                               13.98    771.52    -87.76
                               21.13    -87.76   -847.67

     hubbard stress (kbar)      0.00      0.00      0.00
                                0.00      0.00      0.00
                                0.00      0.00      0.00

     DFT-D   stress (kbar)      0.02      0.00      0.00
                                0.00      0.01     -0.01
                                0.00     -0.01      0.01

     XDM     stress (kbar)      0.00      0.00      0.00
                                0.00      0.00      0.00
                                0.00      0.00      0.00

     dft-nl  stress (kbar)      0.00      0.00      0.00
                                0.00      0.00      0.00
                                0.00      0.00      0.00

     TS-vdW  stress (kbar)      0.00      0.00      0.00
                                0.00      0.00      0.00
                                0.00      0.00      0.00


                                0.00      0.00      0.00
                                0.00      0.00      0.00


                                0.00      0.00      0.00

     Energy error            =      6.3E-06 Ry
     Gradient error          =      5.2E-04 Ry/Bohr

     number of scf cycles    =  49
     number of bfgs steps    =  47

     energy             old  =    -111.1483163950 Ry
     energy             new  =    -111.1483226874 Ry

     CASE: energy            _new < energy            _old

     new trust radius        =       0.0390769100 bohr
     new conv_thr            =       0.0000000002 Ry


ATOMIC_POSITIONS (angstrom)
Si            5.0813128041        4.3983820906       20.2270223239
Cl            5.4930040183        6.3508648611       19.7156209718
Cl            3.1288959761        4.2675962546       20.8636514305
Cl            6.3287872016        3.8122067937       21.7549852737



     Writing output data file ./out/aiida.save/
     NEW-OLD atomic charge density approx. for the potential

     negative rho (up, down):  4.418E-02 0.000E+00

     total cpu time spent up to now is      652.2 secs

     Self-consistent Calculation

     iteration #  1     ecut=    60.00 Ry     beta= 0.40
     Davidson diagonalization with overlap

---- Real-time Memory Report at c_bands before calling an iterative solver
           641 MiB given to the printing process from OS
             0 MiB allocation reported by mallinfo(arena+hblkhd)
        324068 MiB available memory on the node where the printing process lives
------------------
     ethr =  1.00E-06,  avg # of iterations =  8.0

     negative rho (up, down):  4.417E-02 0.000E+00

     total cpu time spent up to now is      653.0 secs

     total energy              =    -111.14832873 Ry
     estimated scf accuracy    <       0.00003022 Ry

     iteration #  2     ecut=    60.00 Ry     beta= 0.40
     Davidson diagonalization with overlap

---- Real-time Memory Report at c_bands before calling an iterative solver
           641 MiB given to the printing process from OS
             0 MiB allocation reported by mallinfo(arena+hblkhd)
        324060 MiB available memory on the node where the printing process lives
------------------
     ethr =  1.21E-07,  avg # of iterations =  2.0

     negative rho (up, down):  4.423E-02 0.000E+00

     total cpu time spent up to now is      653.6 secs

     total energy              =    -111.14833021 Ry
     estimated scf accuracy    <       0.00000733 Ry

     iteration #  3     ecut=    60.00 Ry     beta= 0.40
     Davidson diagonalization with overlap

---- Real-time Memory Report at c_bands before calling an iterative solver
           641 MiB given to the printing process from OS
             0 MiB allocation reported by mallinfo(arena+hblkhd)
        324060 MiB available memory on the node where the printing process lives
------------------
     ethr =  2.93E-08,  avg # of iterations =  4.0

     negative rho (up, down):  4.422E-02 0.000E+00

     total cpu time spent up to now is      654.3 secs

     total energy              =    -111.14833140 Ry
     estimated scf accuracy    <       0.00000074 Ry

     iteration #  4     ecut=    60.00 Ry     beta= 0.40
     Davidson diagonalization with overlap

---- Real-time Memory Report at c_bands before calling an iterative solver
           641 MiB given to the printing process from OS
             0 MiB allocation reported by mallinfo(arena+hblkhd)
        324057 MiB available memory on the node where the printing process lives
------------------
     ethr =  2.95E-09,  avg # of iterations =  2.0

     negative rho (up, down):  4.420E-02 0.000E+00

     total cpu time spent up to now is      655.0 secs

     total energy              =    -111.14833152 Ry
     estimated scf accuracy    <       0.00000008 Ry

     iteration #  5     ecut=    60.00 Ry     beta= 0.40
     Davidson diagonalization with overlap

---- Real-time Memory Report at c_bands before calling an iterative solver
           641 MiB given to the printing process from OS
             0 MiB allocation reported by mallinfo(arena+hblkhd)
        324057 MiB available memory on the node where the printing process lives
------------------
     ethr =  3.32E-10,  avg # of iterations =  5.0

     negative rho (up, down):  4.417E-02 0.000E+00

     total cpu time spent up to now is      655.7 secs

     total energy              =    -111.14833155 Ry
     estimated scf accuracy    <       0.00000001 Ry

     iteration #  6     ecut=    60.00 Ry     beta= 0.40
     Davidson diagonalization with overlap

---- Real-time Memory Report at c_bands before calling an iterative solver
           641 MiB given to the printing process from OS
             0 MiB allocation reported by mallinfo(arena+hblkhd)
        324060 MiB available memory on the node where the printing process lives
------------------
     ethr =  5.08E-11,  avg # of iterations =  4.0

     negative rho (up, down):  4.416E-02 0.000E+00

     total cpu time spent up to now is      656.4 secs

     total energy              =    -111.14833155 Ry
     estimated scf accuracy    <          2.3E-09 Ry

     iteration #  7     ecut=    60.00 Ry     beta= 0.40
     Davidson diagonalization with overlap

---- Real-time Memory Report at c_bands before calling an iterative solver
           641 MiB given to the printing process from OS
             0 MiB allocation reported by mallinfo(arena+hblkhd)
        324057 MiB available memory on the node where the printing process lives
------------------
     ethr =  9.33E-12,  avg # of iterations =  2.0

     negative rho (up, down):  4.415E-02 0.000E+00

     total cpu time spent up to now is      657.1 secs

     End of self-consistent calculation

          k = 0.0000 0.0000 0.0000 ( 95217 PWs)   bands (ev):

   -21.6231 -20.8037 -20.7975 -13.1442 -10.5250 -10.5170  -9.3760  -8.6986
    -8.6933  -8.1923  -8.1837  -7.8280  -5.1396  -1.1193  -0.5556  -0.5260
    -0.4141

     occupation numbers 
     1.0000   1.0000   1.0000   1.0000   1.0000   1.0000   1.0000   1.0000
     1.0000   1.0000   1.0000   1.0000   0.5000   0.0000   0.0000   0.0000
     0.0000

     the Fermi energy is    -5.1117 ev

!    total energy              =    -111.14833155 Ry
     estimated scf accuracy    <          1.1E-10 Ry
     smearing contrib. (-TS)   =      -0.00482420 Ry
     internal energy E=F+TS    =    -111.14350735 Ry

     The total energy is F=E-TS. E is the sum of the following terms:
     one-electron contribution =    -393.74636211 Ry
     hartree contribution      =     199.05743555 Ry
     xc contribution           =     -33.93241873 Ry
     ewald contribution        =     117.48195668 Ry
     Dispersion Correction     =      -0.00411875 Ry
     one-center paw contrib.   =       0.00000000 Ry
      -> PAW hartree energy AE =       0.00000000 Ry
      -> PAW hartree energy PS =       0.00000000 Ry
      -> PAW xc energy AE      =       0.00000000 Ry
      -> PAW xc energy PS      =       0.00000000 Ry
      -> total E_H with PAW    =     199.05743555 Ry
      -> total E_XC with PAW   =     -33.93241873 Ry

     convergence has been achieved in   7 iterations

     negative rho (up, down):  4.415E-02 0.000E+00

     Forces acting on atoms (cartesian axes, Ry/au):

     atom    1 type  3   force =    -0.00031018    0.00031861    0.00025020
     atom    2 type  4   force =     0.00019398   -0.00052418    0.00011589
     atom    3 type  4   force =    -0.00016715   -0.00009607   -0.00023891
     atom    4 type  4   force =     0.00028334    0.00030163   -0.00012718
     The non-local contrib.  to forces
     atom    1 type  3   force =    -0.02102936    0.09254113    0.12312724
     atom    2 type  4   force =    -0.04121507   -0.19594058    0.05425787
     atom    3 type  4   force =     0.19710136    0.01430182   -0.06322520
     atom    4 type  4   force =    -0.12577621    0.06153603   -0.15309365
     The ionic contribution  to forces
     atom    1 type  3   force =     0.48811879   -2.04601912   -3.17067452
     atom    2 type  4   force =     1.66062122    5.80380682   -4.06497867
     atom    3 type  4   force =    -6.75105058   -1.12405751    1.47376333
     atom    4 type  4   force =     4.60231057   -2.63373019    5.76188986
     The local contribution  to forces
     atom    1 type  3   force =    -0.46866730    1.95977333    3.05558498
     atom    2 type  4   force =    -1.61923656   -5.60836267    4.01103147
     atom    3 type  4   force =     6.55380298    1.10976336   -1.41063789
     atom    4 type  4   force =    -4.47627588    2.57262857   -5.60876560
     The core correction contribution to forces
     atom    1 type  3   force =     0.00125947   -0.00594013   -0.00775835
     atom    2 type  4   force =    -0.00015768   -0.00058622    0.00014918
     atom    3 type  4   force =     0.00065717    0.00007700   -0.00017098
     atom    4 type  4   force =    -0.00044822    0.00019182   -0.00048147
     The Hubbard contrib.    to forces
     atom    1 type  3   force =     0.00000000    0.00000000    0.00000000
     atom    2 type  4   force =     0.00000000    0.00000000    0.00000000
     atom    3 type  4   force =     0.00000000    0.00000000    0.00000000
     atom    4 type  4   force =     0.00000000    0.00000000    0.00000000
     The SCF correction term to forces
     atom    1 type  3   force =    -0.00000115    0.00000213   -0.00000140
     atom    2 type  4   force =    -0.00001045   -0.00000010   -0.00001550
     atom    3 type  4   force =    -0.00000135    0.00001324   -0.00000596
     atom    4 type  4   force =    -0.00000630    0.00000870    0.00000375

     Dispersion contribution to forces:
     atom    1 type  3   force =     0.00000823   -0.00003687   -0.00002812
     atom    2 type  4   force =     0.00019139    0.00056043   -0.00032885
     atom    3 type  4   force =    -0.00067787   -0.00019212    0.00003742
     atom    4 type  4   force =     0.00047825   -0.00033144    0.00031955

     Total force =     0.000932     Total SCF correction =     0.000026

     Total Dispersion Force =     0.001183


     Computing stress (Cartesian axis) and pressure


     negative rho (up, down):  4.415E-02 0.000E+00
          total   stress  (Ry/bohr**3)                   (kbar)     P=       -0.02
   0.00000006   0.00000003   0.00000002            0.01        0.00        0.00
   0.00000003  -0.00000034   0.00000005            0.00       -0.05        0.01
   0.00000002   0.00000005  -0.00000004            0.00        0.01       -0.01

     kinetic stress (kbar)    145.63     -0.55     -0.79
                               -0.55    147.95      3.42
                               -0.79      3.42    149.97

     local   stress (kbar)  -1947.67    -23.00    -34.57
                              -23.00  -1931.93    139.63
                              -34.57    139.63   1250.10

     nonloc. stress (kbar)    136.30      0.05      0.07
                                0.05    136.05     -0.32
                                0.07     -0.32    135.87

     hartree stress (kbar)    924.59      8.93     13.69
                                8.93    925.99    -54.41
                               13.69    -54.41   -644.21

     exc-cor stress (kbar)     43.46      0.01      0.02
                                0.01     43.41     -0.07
                                0.02     -0.07     43.37

     corecor stress (kbar)    -90.35     -0.01     -0.01
                               -0.01    -90.31      0.04
                               -0.01      0.04    -90.29

     ewald   stress (kbar)    788.02     14.56     21.59
                               14.56    768.79    -88.28
                               21.59    -88.28   -844.82

     hubbard stress (kbar)      0.00      0.00      0.00
                                0.00      0.00      0.00
                                0.00      0.00      0.00

     DFT-D   stress (kbar)      0.02      0.00      0.00
                                0.00      0.01     -0.01
                                0.00     -0.01      0.01

     XDM     stress (kbar)      0.00      0.00      0.00
                                0.00      0.00      0.00
                                0.00      0.00      0.00

     dft-nl  stress (kbar)      0.00      0.00      0.00
                                0.00      0.00      0.00
                                0.00      0.00      0.00

     TS-vdW  stress (kbar)      0.00      0.00      0.00
                                0.00      0.00      0.00
                                0.00      0.00      0.00


                                0.00      0.00      0.00
                                0.00      0.00      0.00


                                0.00      0.00      0.00

     Energy error            =      8.9E-06 Ry
     Gradient error          =      5.2E-04 Ry/Bohr

     number of scf cycles    =  50
     number of bfgs steps    =  48

     energy             old  =    -111.1483226874 Ry
     energy             new  =    -111.1483315511 Ry

     CASE: energy            _new < energy            _old

     new trust radius        =       0.0586153651 bohr
     new conv_thr            =       0.0000000002 Ry


ATOMIC_POSITIONS (angstrom)
Si            5.0843052974        4.3924696068       20.2323332111
Cl            5.4857092263        6.3392757997       19.6916051183
Cl            3.1304719862        4.2600208454       20.8643057793
Cl            6.3315134901        3.8372837480       21.7730358911



     Writing output data file ./out/aiida.save/
     NEW-OLD atomic charge density approx. for the potential

     negative rho (up, down):  4.437E-02 0.000E+00

     total cpu time spent up to now is      664.9 secs

     Self-consistent Calculation

     iteration #  1     ecut=    60.00 Ry     beta= 0.40
     Davidson diagonalization with overlap

---- Real-time Memory Report at c_bands before calling an iterative solver
           641 MiB given to the printing process from OS
             0 MiB allocation reported by mallinfo(arena+hblkhd)
        324066 MiB available memory on the node where the printing process lives
------------------
     ethr =  1.00E-06,  avg # of iterations =  9.0

     negative rho (up, down):  4.434E-02 0.000E+00

     total cpu time spent up to now is      665.7 secs

     total energy              =    -111.14834007 Ry
     estimated scf accuracy    <       0.00006845 Ry

     iteration #  2     ecut=    60.00 Ry     beta= 0.40
     Davidson diagonalization with overlap

---- Real-time Memory Report at c_bands before calling an iterative solver
           641 MiB given to the printing process from OS
             0 MiB allocation reported by mallinfo(arena+hblkhd)
        324057 MiB available memory on the node where the printing process lives
------------------
     ethr =  2.74E-07,  avg # of iterations =  2.0

     negative rho (up, down):  4.443E-02 0.000E+00

     total cpu time spent up to now is      666.4 secs

     total energy              =    -111.14834208 Ry
     estimated scf accuracy    <       0.00001599 Ry

     iteration #  3     ecut=    60.00 Ry     beta= 0.40
     Davidson diagonalization with overlap

---- Real-time Memory Report at c_bands before calling an iterative solver
           641 MiB given to the printing process from OS
             0 MiB allocation reported by mallinfo(arena+hblkhd)
        324057 MiB available memory on the node where the printing process lives
------------------
     ethr =  6.40E-08,  avg # of iterations =  2.0

     negative rho (up, down):  4.445E-02 0.000E+00

     total cpu time spent up to now is      667.0 secs

     total energy              =    -111.14834315 Ry
     estimated scf accuracy    <       0.00000179 Ry

     iteration #  4     ecut=    60.00 Ry     beta= 0.40
     Davidson diagonalization with overlap

---- Real-time Memory Report at c_bands before calling an iterative solver
           641 MiB given to the printing process from OS
             0 MiB allocation reported by mallinfo(arena+hblkhd)
        324057 MiB available memory on the node where the printing process lives
------------------
     ethr =  7.15E-09,  avg # of iterations =  4.0

     negative rho (up, down):  4.439E-02 0.000E+00

     total cpu time spent up to now is      667.7 secs

     total energy              =    -111.14834341 Ry
     estimated scf accuracy    <       0.00000018 Ry

     iteration #  5     ecut=    60.00 Ry     beta= 0.40
     Davidson diagonalization with overlap

---- Real-time Memory Report at c_bands before calling an iterative solver
           641 MiB given to the printing process from OS
             0 MiB allocation reported by mallinfo(arena+hblkhd)
        324057 MiB available memory on the node where the printing process lives
------------------
     ethr =  7.19E-10,  avg # of iterations =  2.0

     negative rho (up, down):  4.434E-02 0.000E+00

     total cpu time spent up to now is      668.4 secs

     total energy              =    -111.14834344 Ry
     estimated scf accuracy    <       0.00000002 Ry

     iteration #  6     ecut=    60.00 Ry     beta= 0.40
     Davidson diagonalization with overlap

---- Real-time Memory Report at c_bands before calling an iterative solver
           641 MiB given to the printing process from OS
             0 MiB allocation reported by mallinfo(arena+hblkhd)
        324060 MiB available memory on the node where the printing process lives
------------------
     ethr =  6.99E-11,  avg # of iterations =  4.0

     negative rho (up, down):  4.432E-02 0.000E+00

     total cpu time spent up to now is      669.1 secs

     total energy              =    -111.14834345 Ry
     estimated scf accuracy    <          3.5E-09 Ry

     iteration #  7     ecut=    60.00 Ry     beta= 0.40
     Davidson diagonalization with overlap

---- Real-time Memory Report at c_bands before calling an iterative solver
           641 MiB given to the printing process from OS
             0 MiB allocation reported by mallinfo(arena+hblkhd)
        324061 MiB available memory on the node where the printing process lives
------------------
     ethr =  1.41E-11,  avg # of iterations =  2.0

     negative rho (up, down):  4.430E-02 0.000E+00

     total cpu time spent up to now is      669.8 secs

     End of self-consistent calculation

          k = 0.0000 0.0000 0.0000 ( 95217 PWs)   bands (ev):

   -21.6223 -20.8034 -20.7981 -13.1446 -10.5247 -10.5174  -9.3755  -8.6991
    -8.6928  -8.1926  -8.1847  -7.8288  -5.1406  -1.1227  -0.5555  -0.5290
    -0.4152

     occupation numbers 
     1.0000   1.0000   1.0000   1.0000   1.0000   1.0000   1.0000   1.0000
     1.0000   1.0000   1.0000   1.0000   0.5000   0.0000   0.0000   0.0000
     0.0000

     the Fermi energy is    -5.1127 ev

!    total energy              =    -111.14834346 Ry
     estimated scf accuracy    <          1.4E-10 Ry
     smearing contrib. (-TS)   =      -0.00482420 Ry
     internal energy E=F+TS    =    -111.14351926 Ry

     The total energy is F=E-TS. E is the sum of the following terms:
     one-electron contribution =    -393.48920385 Ry
     hartree contribution      =     198.92835420 Ry
     xc contribution           =     -33.93184931 Ry
     ewald contribution        =     117.35329766 Ry
     Dispersion Correction     =      -0.00411796 Ry
     one-center paw contrib.   =       0.00000000 Ry
      -> PAW hartree energy AE =       0.00000000 Ry
      -> PAW hartree energy PS =       0.00000000 Ry
      -> PAW xc energy AE      =       0.00000000 Ry
      -> PAW xc energy PS      =       0.00000000 Ry
      -> total E_H with PAW    =     198.92835420 Ry
      -> total E_XC with PAW   =     -33.93184931 Ry

     convergence has been achieved in   7 iterations

     negative rho (up, down):  4.430E-02 0.000E+00

     Forces acting on atoms (cartesian axes, Ry/au):

     atom    1 type  3   force =    -0.00005426    0.00024182    0.00046008
     atom    2 type  4   force =     0.00020994   -0.00057890    0.00018101
     atom    3 type  4   force =    -0.00009395   -0.00011693   -0.00018713
     atom    4 type  4   force =    -0.00006172    0.00045401   -0.00045395
     The non-local contrib.  to forces
     atom    1 type  3   force =    -0.02179328    0.09430088    0.12194930
     atom    2 type  4   force =    -0.04017699   -0.19535663    0.05723522
     atom    3 type  4   force =     0.19732263    0.01445675   -0.06263692
     atom    4 type  4   force =    -0.12614001    0.05855364   -0.15466711
     The ionic contribution  to forces
     atom    1 type  3   force =     0.51157671   -2.08729736   -3.12648893
     atom    2 type  4   force =     1.63263536    5.77662913   -4.17970993
     atom    3 type  4   force =    -6.74573524   -1.14531103    1.47251139
     atom    4 type  4   force =     4.60152317   -2.54402074    5.83368747
     The local contribution  to forces
     atom    1 type  3   force =    -0.49113369    1.99932409    3.01275535
     atom    2 type  4   force =    -1.59227955   -5.58181538    4.12285274
     atom    3 type  4   force =     6.54833665    1.13085025   -1.40991417
     atom    4 type  4   force =    -4.47550060    2.48606946   -5.67933665
     The core correction contribution to forces
     atom    1 type  3   force =     0.00128780   -0.00604780   -0.00772282
     atom    2 type  4   force =    -0.00015493   -0.00058082    0.00015653
     atom    3 type  4   force =     0.00065407    0.00007952   -0.00017462
     atom    4 type  4   force =    -0.00042466    0.00017256   -0.00046295
     The Hubbard contrib.    to forces
     atom    1 type  3   force =     0.00000000    0.00000000    0.00000000
     atom    2 type  4   force =     0.00000000    0.00000000    0.00000000
     atom    3 type  4   force =     0.00000000    0.00000000    0.00000000
     atom    4 type  4   force =     0.00000000    0.00000000    0.00000000
     The SCF correction term to forces
     atom    1 type  3   force =    -0.00000152    0.00000140   -0.00000571
     atom    2 type  4   force =    -0.00000624   -0.00000576   -0.00002026
     atom    3 type  4   force =    -0.00000329    0.00000676   -0.00001429
     atom    4 type  4   force =     0.00000822   -0.00000045    0.00000322

     Dispersion contribution to forces:
     atom    1 type  3   force =     0.00000837   -0.00003727   -0.00002789
     atom    2 type  4   force =     0.00019094    0.00055267   -0.00033408
     atom    3 type  4   force =    -0.00067013   -0.00019706    0.00004068
     atom    4 type  4   force =     0.00047081   -0.00031834    0.00032129

     Total force =     0.001076     Total SCF correction =     0.000029

     Total Dispersion Force =     0.001171


     Computing stress (Cartesian axis) and pressure


     negative rho (up, down):  4.430E-02 0.000E+00
          total   stress  (Ry/bohr**3)                   (kbar)     P=       -0.02
   0.00000001   0.00000005  -0.00000002            0.00        0.01       -0.00
   0.00000005  -0.00000036   0.00000007            0.01       -0.05        0.01
  -0.00000002   0.00000007  -0.00000008           -0.00        0.01       -0.01

     kinetic stress (kbar)    145.63     -0.58     -0.82
                               -0.58    148.04      3.44
                               -0.82      3.44    149.86

     local   stress (kbar)  -1945.88    -24.41    -35.65
                              -24.41  -1924.87    140.73
                              -35.65    140.73   1242.81

     nonloc. stress (kbar)    136.30      0.06      0.07
                                0.06    136.04     -0.32
                                0.07     -0.32    135.88

     hartree stress (kbar)    923.74      9.47     14.12
                                9.47    922.94    -54.86
                               14.12    -54.86   -641.09

     exc-cor stress (kbar)     43.46      0.01      0.02
                                0.01     43.41     -0.07
                                0.02     -0.07     43.37

     corecor stress (kbar)    -90.35     -0.01     -0.01
                               -0.01    -90.31      0.04
                               -0.01      0.04    -90.29

     ewald   stress (kbar)    787.08     15.46     22.26
                               15.46    764.69    -88.95
                               22.26    -88.95   -840.56

     hubbard stress (kbar)      0.00      0.00      0.00
                                0.00      0.00      0.00
                                0.00      0.00      0.00

     DFT-D   stress (kbar)      0.02      0.00      0.00
                                0.00      0.01     -0.01
                                0.00     -0.01      0.01

     XDM     stress (kbar)      0.00      0.00      0.00
                                0.00      0.00      0.00
                                0.00      0.00      0.00

     dft-nl  stress (kbar)      0.00      0.00      0.00
                                0.00      0.00      0.00
                                0.00      0.00      0.00

     TS-vdW  stress (kbar)      0.00      0.00      0.00
                                0.00      0.00      0.00
                                0.00      0.00      0.00


                                0.00      0.00      0.00
                                0.00      0.00      0.00


                                0.00      0.00      0.00

     Energy error            =      1.2E-05 Ry
     Gradient error          =      5.8E-04 Ry/Bohr

     number of scf cycles    =  51
     number of bfgs steps    =  49

     energy             old  =    -111.1483315511 Ry
     energy             new  =    -111.1483434611 Ry

     CASE: energy            _new < energy            _old

     new trust radius        =       0.0879230476 bohr
     new conv_thr            =       0.0000000002 Ry


ATOMIC_POSITIONS (angstrom)
Si            5.0888007078        4.3836975340       20.2404640609
Cl            5.4750303128        6.3213973994       19.6559879543
Cl            3.1327914228        4.2486809754       20.8652110338
Cl            6.3353775566        3.8752740912       21.7996169508



     Writing output data file ./out/aiida.save/
     NEW-OLD atomic charge density approx. for the potential

     negative rho (up, down):  4.431E-02 0.000E+00

     total cpu time spent up to now is      677.6 secs

     Self-consistent Calculation

     iteration #  1     ecut=    60.00 Ry     beta= 0.40
     Davidson diagonalization with overlap

---- Real-time Memory Report at c_bands before calling an iterative solver
           641 MiB given to the printing process from OS
             0 MiB allocation reported by mallinfo(arena+hblkhd)
        324067 MiB available memory on the node where the printing process lives
------------------
     ethr =  1.00E-06,  avg # of iterations = 10.0

     negative rho (up, down):  4.425E-02 0.000E+00

     total cpu time spent up to now is      681.3 secs

     total energy              =    -111.14835070 Ry
     estimated scf accuracy    <       0.00015216 Ry

     iteration #  2     ecut=    60.00 Ry     beta= 0.40
     Davidson diagonalization with overlap

---- Real-time Memory Report at c_bands before calling an iterative solver
           641 MiB given to the printing process from OS
             0 MiB allocation reported by mallinfo(arena+hblkhd)
        324059 MiB available memory on the node where the printing process lives
------------------
     ethr =  6.09E-07,  avg # of iterations =  1.0

     negative rho (up, down):  4.440E-02 0.000E+00

     total cpu time spent up to now is      682.0 secs

     total energy              =    -111.14835323 Ry
     estimated scf accuracy    <       0.00003579 Ry

     iteration #  3     ecut=    60.00 Ry     beta= 0.40
     Davidson diagonalization with overlap

---- Real-time Memory Report at c_bands before calling an iterative solver
           641 MiB given to the printing process from OS
             0 MiB allocation reported by mallinfo(arena+hblkhd)
        324059 MiB available memory on the node where the printing process lives
------------------
     ethr =  1.43E-07,  avg # of iterations =  1.0

     negative rho (up, down):  4.442E-02 0.000E+00

     total cpu time spent up to now is      682.6 secs

     total energy              =    -111.14835525 Ry
     estimated scf accuracy    <       0.00000397 Ry

     iteration #  4     ecut=    60.00 Ry     beta= 0.40
     Davidson diagonalization with overlap

---- Real-time Memory Report at c_bands before calling an iterative solver
           641 MiB given to the printing process from OS
             0 MiB allocation reported by mallinfo(arena+hblkhd)
        324059 MiB available memory on the node where the printing process lives
------------------
     ethr =  1.59E-08,  avg # of iterations =  2.0

     negative rho (up, down):  4.434E-02 0.000E+00

     total cpu time spent up to now is      683.3 secs

     total energy              =    -111.14835555 Ry
     estimated scf accuracy    <       0.00000036 Ry

     iteration #  5     ecut=    60.00 Ry     beta= 0.40
     Davidson diagonalization with overlap

---- Real-time Memory Report at c_bands before calling an iterative solver
           641 MiB given to the printing process from OS
             0 MiB allocation reported by mallinfo(arena+hblkhd)
        324058 MiB available memory on the node where the printing process lives
------------------
     ethr =  1.43E-09,  avg # of iterations =  4.0

     negative rho (up, down):  4.425E-02 0.000E+00

     total cpu time spent up to now is      684.0 secs

     total energy              =    -111.14835562 Ry
     estimated scf accuracy    <       0.00000004 Ry

     iteration #  6     ecut=    60.00 Ry     beta= 0.40
     Davidson diagonalization with overlap

---- Real-time Memory Report at c_bands before calling an iterative solver
           641 MiB given to the printing process from OS
             0 MiB allocation reported by mallinfo(arena+hblkhd)
        324060 MiB available memory on the node where the printing process lives
------------------
     ethr =  1.53E-10,  avg # of iterations =  2.0

     negative rho (up, down):  4.421E-02 0.000E+00

     total cpu time spent up to now is      684.6 secs

     total energy              =    -111.14835564 Ry
     estimated scf accuracy    <          4.8E-09 Ry

     iteration #  7     ecut=    60.00 Ry     beta= 0.40
     Davidson diagonalization with overlap

---- Real-time Memory Report at c_bands before calling an iterative solver
           641 MiB given to the printing process from OS
             0 MiB allocation reported by mallinfo(arena+hblkhd)
        324060 MiB available memory on the node where the printing process lives
------------------
     ethr =  1.90E-11,  avg # of iterations =  4.0

     negative rho (up, down):  4.419E-02 0.000E+00

     total cpu time spent up to now is      685.3 secs

     total energy              =    -111.14835565 Ry
     estimated scf accuracy    <          4.6E-10 Ry

     iteration #  8     ecut=    60.00 Ry     beta= 0.40
     Davidson diagonalization with overlap

---- Real-time Memory Report at c_bands before calling an iterative solver
           641 MiB given to the printing process from OS
             0 MiB allocation reported by mallinfo(arena+hblkhd)
        324061 MiB available memory on the node where the printing process lives
------------------
     ethr =  1.83E-12,  avg # of iterations =  4.0

     negative rho (up, down):  4.417E-02 0.000E+00

     total cpu time spent up to now is      686.0 secs

     End of self-consistent calculation

          k = 0.0000 0.0000 0.0000 ( 95217 PWs)   bands (ev):

   -21.6202 -20.8025 -20.7983 -13.1450 -10.5233 -10.5177  -9.3741  -8.6996
    -8.6914  -8.1926  -8.1863  -7.8300  -5.1433  -1.1294  -0.5563  -0.5351
    -0.4169

     occupation numbers 
     1.0000   1.0000   1.0000   1.0000   1.0000   1.0000   1.0000   1.0000
     1.0000   1.0000   1.0000   1.0000   0.5000   0.0000   0.0000   0.0000
     0.0000

     the Fermi energy is    -5.1155 ev

!    total energy              =    -111.14835569 Ry
     estimated scf accuracy    <          4.1E-11 Ry
     smearing contrib. (-TS)   =      -0.00482420 Ry
     internal energy E=F+TS    =    -111.14353149 Ry

     The total energy is F=E-TS. E is the sum of the following terms:
     one-electron contribution =    -393.08738190 Ry
     hartree contribution      =     198.72678596 Ry
     xc contribution           =     -33.93062094 Ry
     ewald contribution        =     117.15180292 Ry
     Dispersion Correction     =      -0.00411753 Ry
     one-center paw contrib.   =       0.00000000 Ry
      -> PAW hartree energy AE =       0.00000000 Ry
      -> PAW hartree energy PS =       0.00000000 Ry
      -> PAW xc energy AE      =       0.00000000 Ry
      -> PAW xc energy PS      =       0.00000000 Ry
      -> total E_H with PAW    =     198.72678596 Ry
      -> total E_XC with PAW   =     -33.93062094 Ry

     convergence has been achieved in   8 iterations

     negative rho (up, down):  4.417E-02 0.000E+00

     Forces acting on atoms (cartesian axes, Ry/au):

     atom    1 type  3   force =     0.00046246    0.00030245    0.00085724
     atom    2 type  4   force =     0.00020356   -0.00084658    0.00034469
     atom    3 type  4   force =     0.00004574   -0.00015662   -0.00009578
     atom    4 type  4   force =    -0.00071175    0.00070076   -0.00110615
     The non-local contrib.  to forces
     atom    1 type  3   force =    -0.02286778    0.09701064    0.12022175
     atom    2 type  4   force =    -0.03866541   -0.19460079    0.06171981
     atom    3 type  4   force =     0.19768524    0.01467758   -0.06170345
     atom    4 type  4   force =    -0.12679541    0.05408326   -0.15707845
     The ionic contribution  to forces
     atom    1 type  3   force =     0.54810210   -2.14716035   -3.05815841
     atom    2 type  4   force =     1.59131204    5.73126856   -4.34844614
     atom    3 type  4   force =    -6.73689123   -1.17715780    1.47030172
     atom    4 type  4   force =     4.59747709   -2.40695041    5.93630283
     The local contribution  to forces
     atom    1 type  3   force =    -0.52609506    2.05672072    2.94650327
     atom    2 type  4   force =    -1.55249103   -5.53749325    4.28725607
     atom    3 type  4   force =     6.53925603    1.16245087   -1.40856197
     atom    4 type  4   force =    -4.47146841    2.35372354   -5.78023073
     The core correction contribution to forces
     atom    1 type  3   force =     0.00131451   -0.00622841   -0.00768145
     atom    2 type  4   force =    -0.00014852   -0.00056014    0.00016354
     atom    3 type  4   force =     0.00064848    0.00008410   -0.00018107
     atom    4 type  4   force =    -0.00037990    0.00014184   -0.00042539
     The Hubbard contrib.    to forces
     atom    1 type  3   force =     0.00000000    0.00000000    0.00000000
     atom    2 type  4   force =     0.00000000    0.00000000    0.00000000
     atom    3 type  4   force =     0.00000000    0.00000000    0.00000000
     atom    4 type  4   force =     0.00000000    0.00000000    0.00000000
     The SCF correction term to forces
     atom    1 type  3   force =    -0.00000012   -0.00000209   -0.00000060
     atom    2 type  4   force =     0.00000561    0.00000026   -0.00000899
     atom    3 type  4   force =     0.00000282   -0.00000714    0.00000258
     atom    4 type  4   force =    -0.00000204   -0.00000018    0.00000416

     Dispersion contribution to forces:
     atom    1 type  3   force =     0.00000856   -0.00003787   -0.00002755
     atom    2 type  4   force =     0.00019062    0.00053898   -0.00033984
     atom    3 type  4   force =    -0.00065585   -0.00020403    0.00004617
     atom    4 type  4   force =     0.00045668   -0.00029708    0.00032121

     Total force =     0.002043     Total SCF correction =     0.000014

     Total Dispersion Force =     0.001148


     Computing stress (Cartesian axis) and pressure


     negative rho (up, down):  4.417E-02 0.000E+00
          total   stress  (Ry/bohr**3)                   (kbar)     P=       -0.03
  -0.00000007   0.00000007  -0.00000009           -0.01        0.01       -0.01
   0.00000007  -0.00000042   0.00000012            0.01       -0.06        0.02
  -0.00000009   0.00000012  -0.00000016           -0.01        0.02       -0.02

     kinetic stress (kbar)    145.63     -0.63     -0.86
                               -0.63    148.18      3.47
                               -0.86      3.47    149.69

     local   stress (kbar)  -1943.08    -26.61    -37.22
                              -26.61  -1914.28    142.08
                              -37.22    142.08   1231.87

     nonloc. stress (kbar)    136.29      0.07      0.07
                                0.07    136.02     -0.32
                                0.07     -0.32    135.89

     hartree stress (kbar)    922.41     10.31     14.75
                               10.31    918.36    -55.42
                               14.75    -55.42   -636.40

     exc-cor stress (kbar)     43.46      0.01      0.02
                                0.01     43.41     -0.07
                                0.02     -0.07     43.38

     corecor stress (kbar)    -90.34     -0.01     -0.01
                               -0.01    -90.31      0.04
                               -0.01      0.04    -90.29

     ewald   stress (kbar)    785.61     16.86     23.24
                               16.86    758.54    -89.77
                               23.24    -89.77   -834.16

     hubbard stress (kbar)      0.00      0.00      0.00
                                0.00      0.00      0.00
                                0.00      0.00      0.00

     DFT-D   stress (kbar)      0.02      0.00      0.00
                                0.00      0.01     -0.01
                                0.00     -0.01      0.01

     XDM     stress (kbar)      0.00      0.00      0.00
                                0.00      0.00      0.00
                                0.00      0.00      0.00

     dft-nl  stress (kbar)      0.00      0.00      0.00
                                0.00      0.00      0.00
                                0.00      0.00      0.00

     TS-vdW  stress (kbar)      0.00      0.00      0.00
                                0.00      0.00      0.00
                                0.00      0.00      0.00


                                0.00      0.00      0.00
                                0.00      0.00      0.00


                                0.00      0.00      0.00

     Energy error            =      1.2E-05 Ry
     Gradient error          =      1.1E-03 Ry/Bohr

     number of scf cycles    =  52
     number of bfgs steps    =  50

     energy             old  =    -111.1483434611 Ry
     energy             new  =    -111.1483556880 Ry

     CASE: energy            _new < energy            _old

     new trust radius        =       0.0855549902 bohr
     new conv_thr            =       0.0000000002 Ry


ATOMIC_POSITIONS (angstrom)
Si            5.0928640986        4.3758388120       20.2489625045
Cl            5.4657969772        6.3024226969       19.6225730251
Cl            3.1345284322        4.2375139161       20.8657576461
Cl            6.3388104920        3.9132745750       21.8239868242



     Writing output data file ./out/aiida.save/
     NEW-OLD atomic charge density approx. for the potential

     negative rho (up, down):  4.467E-02 0.000E+00

     total cpu time spent up to now is      693.8 secs

     Self-consistent Calculation

     iteration #  1     ecut=    60.00 Ry     beta= 0.40
     Davidson diagonalization with overlap

---- Real-time Memory Report at c_bands before calling an iterative solver
           641 MiB given to the printing process from OS
             0 MiB allocation reported by mallinfo(arena+hblkhd)
        324072 MiB available memory on the node where the printing process lives
------------------
     ethr =  1.00E-06,  avg # of iterations = 10.0

     negative rho (up, down):  4.462E-02 0.000E+00

     total cpu time spent up to now is      694.6 secs

     total energy              =    -111.14836114 Ry
     estimated scf accuracy    <       0.00014284 Ry

     iteration #  2     ecut=    60.00 Ry     beta= 0.40
     Davidson diagonalization with overlap

---- Real-time Memory Report at c_bands before calling an iterative solver
           641 MiB given to the printing process from OS
             0 MiB allocation reported by mallinfo(arena+hblkhd)
        324062 MiB available memory on the node where the printing process lives
------------------
     ethr =  5.71E-07,  avg # of iterations =  1.0

     negative rho (up, down):  4.476E-02 0.000E+00

     total cpu time spent up to now is      695.3 secs

     total energy              =    -111.14836382 Ry
     estimated scf accuracy    <       0.00003325 Ry

     iteration #  3     ecut=    60.00 Ry     beta= 0.40
     Davidson diagonalization with overlap

---- Real-time Memory Report at c_bands before calling an iterative solver
           641 MiB given to the printing process from OS
             0 MiB allocation reported by mallinfo(arena+hblkhd)
        324060 MiB available memory on the node where the printing process lives
------------------
     ethr =  1.33E-07,  avg # of iterations =  1.0

     negative rho (up, down):  4.479E-02 0.000E+00

     total cpu time spent up to now is      696.0 secs

     total energy              =    -111.14836566 Ry
     estimated scf accuracy    <       0.00000375 Ry

     iteration #  4     ecut=    60.00 Ry     beta= 0.40
     Davidson diagonalization with overlap

---- Real-time Memory Report at c_bands before calling an iterative solver
           641 MiB given to the printing process from OS
             0 MiB allocation reported by mallinfo(arena+hblkhd)
        324059 MiB available memory on the node where the printing process lives
------------------
     ethr =  1.50E-08,  avg # of iterations =  2.0

     negative rho (up, down):  4.471E-02 0.000E+00

     total cpu time spent up to now is      696.6 secs

     total energy              =    -111.14836594 Ry
     estimated scf accuracy    <       0.00000030 Ry

     iteration #  5     ecut=    60.00 Ry     beta= 0.40
     Davidson diagonalization with overlap

---- Real-time Memory Report at c_bands before calling an iterative solver
           641 MiB given to the printing process from OS
             0 MiB allocation reported by mallinfo(arena+hblkhd)
        324060 MiB available memory on the node where the printing process lives
------------------
     ethr =  1.21E-09,  avg # of iterations =  4.0

     negative rho (up, down):  4.463E-02 0.000E+00

     total cpu time spent up to now is      697.3 secs

     total energy              =    -111.14836601 Ry
     estimated scf accuracy    <       0.00000004 Ry

     iteration #  6     ecut=    60.00 Ry     beta= 0.40
     Davidson diagonalization with overlap

---- Real-time Memory Report at c_bands before calling an iterative solver
           641 MiB given to the printing process from OS
             0 MiB allocation reported by mallinfo(arena+hblkhd)
        324060 MiB available memory on the node where the printing process lives
------------------
     ethr =  1.47E-10,  avg # of iterations =  4.0

     negative rho (up, down):  4.459E-02 0.000E+00

     total cpu time spent up to now is      698.0 secs

     total energy              =    -111.14836602 Ry
     estimated scf accuracy    <          4.9E-09 Ry

     iteration #  7     ecut=    60.00 Ry     beta= 0.40
     Davidson diagonalization with overlap

---- Real-time Memory Report at c_bands before calling an iterative solver
           641 MiB given to the printing process from OS
             0 MiB allocation reported by mallinfo(arena+hblkhd)
        324060 MiB available memory on the node where the printing process lives
------------------
     ethr =  1.97E-11,  avg # of iterations =  4.0

     negative rho (up, down):  4.457E-02 0.000E+00

     total cpu time spent up to now is      698.7 secs

     total energy              =    -111.14836604 Ry
     estimated scf accuracy    <          5.3E-10 Ry

     iteration #  8     ecut=    60.00 Ry     beta= 0.40
     Davidson diagonalization with overlap

---- Real-time Memory Report at c_bands before calling an iterative solver
           641 MiB given to the printing process from OS
             0 MiB allocation reported by mallinfo(arena+hblkhd)
        324062 MiB available memory on the node where the printing process lives
------------------
     ethr =  2.12E-12,  avg # of iterations =  4.0

     negative rho (up, down):  4.455E-02 0.000E+00

     total cpu time spent up to now is      699.4 secs

     End of self-consistent calculation

          k = 0.0000 0.0000 0.0000 ( 95217 PWs)   bands (ev):

   -21.6203 -20.8049 -20.7981 -13.1458 -10.5237 -10.5191  -9.3740  -8.7009
    -8.6914  -8.1937  -8.1887  -7.8317  -5.1414  -1.1349  -0.5528  -0.5387
    -0.4181

     occupation numbers 
     1.0000   1.0000   1.0000   1.0000   1.0000   1.0000   1.0000   1.0000
     1.0000   1.0000   1.0000   1.0000   0.5000   0.0000   0.0000   0.0000
     0.0000

     the Fermi energy is    -5.1135 ev

!    total energy              =    -111.14836607 Ry
     estimated scf accuracy    <          5.1E-11 Ry
     smearing contrib. (-TS)   =      -0.00482420 Ry
     internal energy E=F+TS    =    -111.14354187 Ry

     The total energy is F=E-TS. E is the sum of the following terms:
     one-electron contribution =    -392.73103574 Ry
     hartree contribution      =     198.54764247 Ry
     xc contribution           =     -33.93029168 Ry
     ewald contribution        =     116.97425938 Ry
     Dispersion Correction     =      -0.00411630 Ry
     one-center paw contrib.   =       0.00000000 Ry
      -> PAW hartree energy AE =       0.00000000 Ry
      -> PAW hartree energy PS =       0.00000000 Ry
      -> PAW xc energy AE      =       0.00000000 Ry
      -> PAW xc energy PS      =       0.00000000 Ry
      -> total E_H with PAW    =     198.54764247 Ry
      -> total E_XC with PAW   =     -33.93029168 Ry

     convergence has been achieved in   8 iterations

     negative rho (up, down):  4.455E-02 0.000E+00

     Forces acting on atoms (cartesian axes, Ry/au):

     atom    1 type  3   force =     0.00080345   -0.00013645    0.00106353
     atom    2 type  4   force =     0.00022217   -0.00051526    0.00032720
     atom    3 type  4   force =     0.00019057   -0.00013676    0.00005617
     atom    4 type  4   force =    -0.00121620    0.00078848   -0.00144690
     The non-local contrib.  to forces
     atom    1 type  3   force =    -0.02419863    0.09930928    0.11852997
     atom    2 type  4   force =    -0.03742943   -0.19310283    0.06587617
     atom    3 type  4   force =     0.19808791    0.01511444   -0.06056873
     atom    4 type  4   force =    -0.12741508    0.04952573   -0.15890347
     The ionic contribution  to forces
     atom    1 type  3   force =     0.57875694   -2.20512420   -2.98767403
     atom    2 type  4   force =     1.55525054    5.68880297   -4.51104372
     atom    3 type  4   force =    -6.72817798   -1.20938164    1.46626640
     atom    4 type  4   force =     4.59417049   -2.27429713    6.03245135
     The local contribution  to forces
     atom    1 type  3   force =    -0.55516011    2.11206905    2.87788027
     atom    2 type  4   force =    -1.51764604   -5.49617103    4.44566544
     atom    3 type  4   force =     6.53027859    1.19426011   -1.40550456
     atom    4 type  4   force =    -4.46806983    2.22572263   -5.87491607
     The core correction contribution to forces
     atom    1 type  3   force =     0.00139589   -0.00635100   -0.00764600
     atom    2 type  4   force =    -0.00014433   -0.00058152    0.00018240
     atom    3 type  4   force =     0.00064177    0.00008390   -0.00019089
     atom    4 type  4   force =    -0.00034470    0.00012196   -0.00040727
     The Hubbard contrib.    to forces
     atom    1 type  3   force =     0.00000000    0.00000000    0.00000000
     atom    2 type  4   force =     0.00000000    0.00000000    0.00000000
     atom    3 type  4   force =     0.00000000    0.00000000    0.00000000
     atom    4 type  4   force =     0.00000000    0.00000000    0.00000000
     The SCF correction term to forces
     atom    1 type  3   force =     0.00000061   -0.00000193    0.00000060
     atom    2 type  4   force =     0.00000398    0.00000401   -0.00000158
     atom    3 type  4   force =    -0.00000120   -0.00000396    0.00000173
     atom    4 type  4   force =     0.00000068   -0.00000132    0.00000254

     Dispersion contribution to forces:
     atom    1 type  3   force =     0.00000877   -0.00003826   -0.00002715
     atom    2 type  4   force =     0.00018746    0.00053252   -0.00035137
     atom    3 type  4   force =    -0.00063849   -0.00021024    0.00005236
     atom    4 type  4   force =     0.00044226   -0.00028401    0.00032616

     Total force =     0.002544     Total SCF correction =     0.000008

     Total Dispersion Force =     0.001132


     Computing stress (Cartesian axis) and pressure


     negative rho (up, down):  4.455E-02 0.000E+00
          total   stress  (Ry/bohr**3)                   (kbar)     P=       -0.03
  -0.00000014   0.00000009  -0.00000015           -0.02        0.01       -0.02
   0.00000009  -0.00000037   0.00000012            0.01       -0.05        0.02
  -0.00000015   0.00000012  -0.00000020           -0.02        0.02       -0.03

     kinetic stress (kbar)    145.62     -0.70     -0.91
                               -0.70    148.33      3.49
                               -0.91      3.49    149.54

     local   stress (kbar)  -1940.57    -28.93    -38.72
                              -28.93  -1904.10    143.09
                              -38.72    143.09   1221.34

     nonloc. stress (kbar)    136.28      0.07      0.07
                                0.07    136.01     -0.32
                                0.07     -0.32    135.90

     hartree stress (kbar)    921.21     11.20     15.34
                               11.20    913.96    -55.83
                               15.34    -55.83   -631.89

     exc-cor stress (kbar)     43.46      0.01      0.02
                                0.01     43.41     -0.07
                                0.02     -0.07     43.38

     corecor stress (kbar)    -90.34     -0.01     -0.01
                               -0.01    -90.31      0.04
                               -0.01      0.04    -90.29

     ewald   stress (kbar)    784.30     18.36     24.19
                               18.36    752.64    -90.38
                               24.19    -90.38   -828.02

     hubbard stress (kbar)      0.00      0.00      0.00
                                0.00      0.00      0.00
                                0.00      0.00      0.00

     DFT-D   stress (kbar)      0.02      0.00      0.00
                                0.00      0.01     -0.01
                                0.00     -0.01      0.01

     XDM     stress (kbar)      0.00      0.00      0.00
                                0.00      0.00      0.00
                                0.00      0.00      0.00

     dft-nl  stress (kbar)      0.00      0.00      0.00
                                0.00      0.00      0.00
                                0.00      0.00      0.00

     TS-vdW  stress (kbar)      0.00      0.00      0.00
                                0.00      0.00      0.00
                                0.00      0.00      0.00


                                0.00      0.00      0.00
                                0.00      0.00      0.00


                                0.00      0.00      0.00

     Energy error            =      1.0E-05 Ry
     Gradient error          =      1.4E-03 Ry/Bohr

     number of scf cycles    =  53
     number of bfgs steps    =  51

     energy             old  =    -111.1483556880 Ry
     energy             new  =    -111.1483660659 Ry

     CASE: energy            _new < energy            _old

     new trust radius        =       0.0404316315 bohr
     new conv_thr            =       0.0000000002 Ry


ATOMIC_POSITIONS (angstrom)
Si            5.0944868963        4.3726592398       20.2537094998
Cl            5.4628102097        6.2918493749       19.6083372048
Cl            3.1348324420        4.2321669808       20.8656631349
Cl            6.3398704521        3.9323744045       21.8335701604



     Writing output data file ./out/aiida.save/
     NEW-OLD atomic charge density approx. for the potential

     negative rho (up, down):  4.447E-02 0.000E+00

     total cpu time spent up to now is      707.2 secs

     Self-consistent Calculation

     iteration #  1     ecut=    60.00 Ry     beta= 0.40
     Davidson diagonalization with overlap

---- Real-time Memory Report at c_bands before calling an iterative solver
           641 MiB given to the printing process from OS
             0 MiB allocation reported by mallinfo(arena+hblkhd)
        324066 MiB available memory on the node where the printing process lives
------------------
     ethr =  1.00E-06,  avg # of iterations =  8.0

     negative rho (up, down):  4.447E-02 0.000E+00

     total cpu time spent up to now is      708.0 secs

     total energy              =    -111.14837214 Ry
     estimated scf accuracy    <       0.00003367 Ry

     iteration #  2     ecut=    60.00 Ry     beta= 0.40
     Davidson diagonalization with overlap

---- Real-time Memory Report at c_bands before calling an iterative solver
           641 MiB given to the printing process from OS
             0 MiB allocation reported by mallinfo(arena+hblkhd)
        324058 MiB available memory on the node where the printing process lives
------------------
     ethr =  1.35E-07,  avg # of iterations =  2.0

     negative rho (up, down):  4.451E-02 0.000E+00

     total cpu time spent up to now is      708.6 secs

     total energy              =    -111.14837387 Ry
     estimated scf accuracy    <       0.00000752 Ry

     iteration #  3     ecut=    60.00 Ry     beta= 0.40
     Davidson diagonalization with overlap

---- Real-time Memory Report at c_bands before calling an iterative solver
           641 MiB given to the printing process from OS
             0 MiB allocation reported by mallinfo(arena+hblkhd)
        324058 MiB available memory on the node where the printing process lives
------------------
     ethr =  3.01E-08,  avg # of iterations =  2.0

     negative rho (up, down):  4.453E-02 0.000E+00

     total cpu time spent up to now is      709.3 secs

     total energy              =    -111.14837462 Ry
     estimated scf accuracy    <       0.00000099 Ry

     Program stopped by user request
     Calculation stopped in scf loop at iteration #     3

     Writing output data file ./out/aiida.save/
     Message from routine punch:
     wavefunctions written to file
 
     init_run     :      3.07s CPU      3.23s WALL (       1 calls)
     electrons    :    255.52s CPU    300.24s WALL (      54 calls)
     update_pot   :    104.75s CPU    105.24s WALL (      53 calls)
     forces       :     76.85s CPU     79.46s WALL (      53 calls)
     force_london :      0.02s CPU      0.02s WALL (      53 calls)
     stress       :    198.91s CPU    207.40s WALL (      53 calls)
     stres_london :      0.05s CPU      0.05s WALL (      53 calls)

     Called by init_run:
     wfcinit      :      0.13s CPU      0.14s WALL (       1 calls)
     wfcinit:atom :      0.00s CPU      0.00s WALL (       1 calls)
     wfcinit:wfcr :      0.13s CPU      0.14s WALL (       1 calls)
     potinit      :      0.72s CPU      0.75s WALL (       1 calls)
     hinit0       :      1.31s CPU      1.37s WALL (       1 calls)

     Called by electrons:
     c_bands      :     44.62s CPU     45.48s WALL (     411 calls)
     sum_band     :     93.22s CPU    113.42s WALL (     411 calls)
     v_of_rho     :     37.89s CPU     38.55s WALL (     446 calls)
     v_h          :      3.87s CPU      3.91s WALL (     446 calls)
     v_xc         :     42.39s CPU     43.16s WALL (     552 calls)
     newd         :     77.84s CPU     97.62s WALL (     446 calls)
     PAW_pot      :      0.43s CPU      0.44s WALL (     499 calls)
     mix_rho      :      6.74s CPU      6.85s WALL (     411 calls)
     energy_londo :      0.03s CPU      0.03s WALL (      54 calls)

     Called by c_bands:
     init_us_2    :      0.65s CPU      0.84s WALL (     876 calls)
     regterg      :     42.31s CPU     42.93s WALL (     411 calls)

     Called by sum_band:
     sum_band:wei :      0.02s CPU      0.02s WALL (     411 calls)
     sum_band:loo :      4.21s CPU      4.41s WALL (     411 calls)
     sum_band:buf :      0.00s CPU      0.00s WALL (     411 calls)
     sum_band:ini :      0.33s CPU      0.43s WALL (     411 calls)
     sum_band:cal :      0.31s CPU      0.31s WALL (     464 calls)
     sum_band:bec :      0.01s CPU      0.01s WALL (     464 calls)
     addusdens    :     82.12s CPU    101.92s WALL (     411 calls)
     addusd:skk   :      0.13s CPU      0.20s WALL (    1644 calls)
     addusd:dgemm :     25.37s CPU     44.30s WALL (    1644 calls)
     addusd:qvan2 :     53.15s CPU     53.61s WALL (    1644 calls)

     Called by *egterg:
     rdiaghg      :      6.41s CPU      6.50s WALL (    1869 calls)
     regterg:over :      2.03s CPU      2.07s WALL (    1530 calls)
     regterg:upda :      2.05s CPU      2.06s WALL (    1530 calls)
     regterg:last :      1.91s CPU      1.93s WALL (    1142 calls)
     rdiaghg:chol :      0.60s CPU      0.61s WALL (    1869 calls)
     rdiaghg:inve :      0.10s CPU      0.10s WALL (    1869 calls)
     rdiaghg:para :      0.70s CPU      0.71s WALL (    3738 calls)
     h_psi        :     21.53s CPU     21.83s WALL (    1942 calls)
     s_psi        :      0.51s CPU      0.52s WALL (    1942 calls)
     g_psi        :      0.09s CPU      0.09s WALL (    1530 calls)

     Called by h_psi:
     h_psi:calbec :      1.19s CPU      1.21s WALL (    1942 calls)
     vloc_psi     :     19.39s CPU     19.65s WALL (    1942 calls)
     add_vuspsi   :      0.83s CPU      0.84s WALL (    1942 calls)

     General routines
     calbec       :      1.67s CPU      1.71s WALL (    2671 calls)
     fft          :     62.09s CPU     62.63s WALL (    5932 calls)
     ffts         :      1.37s CPU      1.40s WALL (     857 calls)
     fftw         :     15.28s CPU     15.46s WALL (   27647 calls)
     interpolate  :      4.41s CPU      4.46s WALL (     446 calls)
     davcio       :      0.00s CPU      0.01s WALL (       7 calls)
 
     Parallel routines

     PAW routines
     PAW_pot      :      0.43s CPU      0.44s WALL (     499 calls)
 
     PWSCF        :  10m50.22s CPU  11m49.72s WALL

 
   This run was terminated on:  21: 2:56  18Jul2025            

=------------------------------------------------------------------------------=
   JOB DONE.
=------------------------------------------------------------------------------=
