
     Program PWSCF v.6.8 starts on 13Aug2025 at  8: 7:48 

     This program is part of the open-source Quantum ESPRESSO suite
     for quantum simulation of materials; please cite
         "P. Giannozzi et al., J. Phys.:Condens. Matter 21 395502 (2009);
         "P. Giannozzi et al., J. Phys.:Condens. Matter 29 465901 (2017);
         "P. Giannozzi et al., J. Chem. Phys. 152 154105 (2020);
          URL http://www.quantum-espresso.org", 
     in publications or presentations arising from this work. More details at
     http://www.quantum-espresso.org/quote

     Parallel version (MPI), running on    32 processors

     MPI processes distributed on     1 nodes
     R & G space division:  proc/nbgrp/npool/nimage =      32
     375735 MiB available memory on the printing compute node when the environment starts
 
     Reading input from pwscf.in

     Current dimensions of program PWSCF are:
     Max number of different atomic species (ntypx) = 10
     Max number of k-points (npk) =  40000
     Max angular momentum in pseudopotentials (lmaxx) =  4
     file O.pbesol-n-kjpaw_psl.0.1.UPF: wavefunction(s)  2P renormalized

     -------------------------------------------------
     Parameters for Dispersion (Grimme-D2) Correction:
     -------------------------------------------------
       atom      VdW radius       C_6     

        H          1.892          4.857
        O          2.536         24.284
        Si         3.243        320.200
        Cl         3.097        175.885

     gamma-point specific algorithms are used

     Subspace diagonalization in iterative solution of the eigenvalue problem:
     one sub-group per band group will be used
     scalapack distributed-memory algorithm (size of sub-group:  5*  5 procs)

 
     Parallelization info
     --------------------
     sticks:   dense  smooth     PW     G-vecs:    dense   smooth      PW
     Min         372     185     45               134676    47598    5939
     Max         374     188     48               134738    47640    5984
     Sum       11959    5957   1483              4310687  1523803  190433
 
     Using Slab Decomposition
 


     bravais-lattice index     =            0
     lattice parameter (alat)  =      19.0023  a.u.
     unit-cell volume          =   24273.0715 (a.u.)^3
     number of atoms/cell      =            4
     number of atomic types    =            4
     number of electrons       =        25.00
     number of Kohn-Sham states=           17
     kinetic-energy cutoff     =      60.0000  Ry
     charge density cutoff     =     480.0000  Ry
     scf convergence threshold =      1.5E-08
     mixing beta               =       0.4000
     number of iterations used =            8  plain     mixing
     Exchange-correlation= SLA  PW   PSX  PSC
                           (   1   4  10   8   0   0   0)

     celldm(1)=  19.002262  celldm(2)=   0.000000  celldm(3)=   0.000000
     celldm(4)=   0.000000  celldm(5)=   0.000000  celldm(6)=   0.000000

     crystal axes: (cart. coord. in units of alat)
               a(1) = (   1.000000   0.000000   0.000000 )  
               a(2) = (   0.000000   0.866025   0.000000 )  
               a(3) = (   0.000000   0.000000   4.084870 )  

     reciprocal axes: (cart. coord. in units 2 pi/alat)
               b(1) = (  1.000000  0.000000  0.000000 )  
               b(2) = (  0.000000  1.154701  0.000000 )  
               b(3) = (  0.000000  0.000000  0.244806 )  


     PseudoPot. # 1 for H  read from file:
     ./pseudo/H.pbesol-rrkjus_psl.1.0.0.UPF
     MD5 check sum: 0324ed591cc0147dc3d88cad0d33f665
     Pseudo is Ultrasoft, Zval =  1.0
     Generated using "atomic" code by A. Dal Corso  v.6.0 svn rev. 13079
     Using radial grid of  929 points,  2 beta functions with: 
                l(1) =   0
                l(2) =   0
     Q(r) pseudized with 0 coefficients 


     PseudoPot. # 2 for O  read from file:
     ./pseudo/O.pbesol-n-kjpaw_psl.0.1.UPF
     MD5 check sum: 81d73d1479e654e5638b0319f0d6c2c7
     Pseudo is Projector augmented-wave + core cor, Zval =  6.0
     Generated using "atomic" code by A. Dal Corso  v.6.0 svn rev. 13079
     Shape of augmentation charge: BESSEL
     Using radial grid of 1095 points,  4 beta functions with: 
                l(1) =   0
                l(2) =   0
                l(3) =   1
                l(4) =   1
     Q(r) pseudized with 0 coefficients 


     PseudoPot. # 3 for Si read from file:
     ./pseudo/Si.pbesol-n-rrkjus_psl.1.0.0.UPF
     MD5 check sum: c4212819de858c94c3a1644338846ac9
     Pseudo is Ultrasoft + core correction, Zval =  4.0
     Generated using "atomic" code by A. Dal Corso  v.6.0 svn rev. 13079
     Using radial grid of 1141 points,  6 beta functions with: 
                l(1) =   0
                l(2) =   0
                l(3) =   1
                l(4) =   1
                l(5) =   2
                l(6) =   2
     Q(r) pseudized with 0 coefficients 


     PseudoPot. # 4 for Cl read from file:
     ./pseudo/cl_pbesol_v1.4.uspp.F.UPF
     MD5 check sum: ed6bbcf06f19043c0df9f6394706ff8f
     Pseudo is Ultrasoft + core correction, Zval =  7.0
     Generated by new atomic code, or converted to UPF format
     Using radial grid of  909 points,  6 beta functions with: 
                l(1) =   0
                l(2) =   0
                l(3) =   1
                l(4) =   1
                l(5) =   2
                l(6) =   2
     Q(r) pseudized with  8 coefficients,  rinner =    1.300   1.300   1.300
                                                       1.300   1.300

     atomic species   valence    mass     pseudopotential
        H              1.00     1.00794     H ( 1.00)
        O              6.00    15.99940     O ( 1.00)
        Si             4.00    28.08550     Si( 1.00)
        Cl             7.00    35.45300     Cl( 1.00)

     No symmetry found


                                    s                        frac. trans.

      isym =  1     identity                                     

 cryst.   s( 1) = (     1          0          0      )
                  (     0          1          0      )
                  (     0          0          1      )

 cart.    s( 1) = (  1.0000000  0.0000000  0.0000000 )
                  (  0.0000000  1.0000000  0.0000000 )
                  (  0.0000000  0.0000000  1.0000000 )


   Cartesian axes

     site n.     atom                  positions (alat units)
         1           Si  tau(   1) = (   0.5905149   0.5057426   2.0164261  )
         2           Cl  tau(   2) = (   0.7367794   0.6135201   2.1074464  )
         3           Cl  tau(   3) = (   0.4140587   0.5443998   2.1039777  )
         4           Cl  tau(   4) = (   0.6432428   0.3105394   2.0373435  )

   Crystallographic axes

     site n.     atom                  positions (cryst. coord.)
         1           Si  tau(   1) = (  0.5905149  0.5839813  0.4936329  )
         2           Cl  tau(   2) = (  0.7367794  0.7084321  0.5159152  )
         3           Cl  tau(   3) = (  0.4140587  0.6286188  0.5150660  )
         4           Cl  tau(   4) = (  0.6432428  0.3585801  0.4987536  )

     number of k points=     1  Marzari-Vanderbilt smearing, width (Ry)=  0.0147
                       cart. coord. in units 2pi/alat
        k(    1) = (   0.0000000   0.0000000   0.0000000), wk =   2.0000000

                       cryst. coord.
        k(    1) = (   0.0000000   0.0000000   0.0000000), wk =   2.0000000

     Dense  grid:  2155344 G-vectors     FFT dimensions: ( 135, 120, 576)

     Smooth grid:   761902 G-vectors     FFT dimensions: (  96,  81, 384)

     Dynamical RAM for                 wfc:       0.77 MB

     Dynamical RAM for     wfc (w. buffer):       0.77 MB

     Dynamical RAM for           str. fact:       4.11 MB

     Dynamical RAM for           local pot:       0.00 MB

     Dynamical RAM for          nlocal pot:       3.27 MB

     Dynamical RAM for                qrad:       7.03 MB

     Dynamical RAM for          rho,v,vnew:       9.76 MB

     Dynamical RAM for               rhoin:       3.25 MB

     Dynamical RAM for            rho*nmix:      16.45 MB

     Dynamical RAM for           G-vectors:       4.04 MB

     Dynamical RAM for          h,s,v(r/c):       0.00 MB

     Dynamical RAM for          <psi|beta>:       0.01 MB

     Dynamical RAM for                 psi:       1.54 MB

     Dynamical RAM for                hpsi:       1.54 MB

     Dynamical RAM for                spsi:       1.54 MB

     Dynamical RAM for      wfcinit/wfcrot:       1.55 MB

     Dynamical RAM for           addusdens:     194.26 MB

     Dynamical RAM for          addusforce:     198.89 MB

     Dynamical RAM for         addusstress:     206.59 MB

     Estimated static dynamical RAM per process >      48.49 MB

     Estimated max dynamical RAM per process >     271.53 MB

     Estimated total dynamical RAM >       8.49 GB

     Initial potential from superposition of free atoms

     starting charge   24.99944, renormalised to   25.00000

     negative rho (up, down):  4.508E-02 0.000E+00
     Starting wfcs are   16 randomized atomic wfcs +    1 random wfcs
     Checking if some PAW data can be deallocated... 
       PAW data deallocated on   32 nodes for type:  2

     total cpu time spent up to now is        5.8 secs

     Self-consistent Calculation

     iteration #  1     ecut=    60.00 Ry     beta= 0.40
     Davidson diagonalization with overlap

---- Real-time Memory Report at c_bands before calling an iterative solver
           439 MiB given to the printing process from OS
             0 MiB allocation reported by mallinfo(arena+hblkhd)
        373042 MiB available memory on the node where the printing process lives
------------------
     ethr =  1.00E-02,  avg # of iterations =  6.0

     Threshold (ethr) on eigenvalues was too large:
     Diagonalizing with lowered threshold

     Davidson diagonalization with overlap

---- Real-time Memory Report at c_bands before calling an iterative solver
           471 MiB given to the printing process from OS
             0 MiB allocation reported by mallinfo(arena+hblkhd)
        373083 MiB available memory on the node where the printing process lives
------------------
     ethr =  3.16E-04,  avg # of iterations =  2.0

     negative rho (up, down):  4.537E-02 0.000E+00

     total cpu time spent up to now is        8.5 secs

     total energy              =    -111.13866355 Ry
     estimated scf accuracy    <       0.08412347 Ry

     iteration #  2     ecut=    60.00 Ry     beta= 0.40
     Davidson diagonalization with overlap

---- Real-time Memory Report at c_bands before calling an iterative solver
           519 MiB given to the printing process from OS
             0 MiB allocation reported by mallinfo(arena+hblkhd)
        371576 MiB available memory on the node where the printing process lives
------------------
     ethr =  3.36E-04,  avg # of iterations =  2.0

     negative rho (up, down):  4.511E-02 0.000E+00

     total cpu time spent up to now is       10.0 secs

     total energy              =    -111.14392008 Ry
     estimated scf accuracy    <       0.01210079 Ry

     iteration #  3     ecut=    60.00 Ry     beta= 0.40
     Davidson diagonalization with overlap

---- Real-time Memory Report at c_bands before calling an iterative solver
           525 MiB given to the printing process from OS
             0 MiB allocation reported by mallinfo(arena+hblkhd)
        371013 MiB available memory on the node where the printing process lives
------------------
     ethr =  4.84E-05,  avg # of iterations =  8.0

     negative rho (up, down):  4.478E-02 0.000E+00

     total cpu time spent up to now is       11.6 secs

     total energy              =    -111.14564908 Ry
     estimated scf accuracy    <       0.00183642 Ry

     iteration #  4     ecut=    60.00 Ry     beta= 0.40
     Davidson diagonalization with overlap

---- Real-time Memory Report at c_bands before calling an iterative solver
           529 MiB given to the printing process from OS
             0 MiB allocation reported by mallinfo(arena+hblkhd)
        371268 MiB available memory on the node where the printing process lives
------------------
     ethr =  7.35E-06,  avg # of iterations =  4.0

     negative rho (up, down):  4.459E-02 0.000E+00

     total cpu time spent up to now is       13.1 secs

     total energy              =    -111.14570492 Ry
     estimated scf accuracy    <       0.00045733 Ry

     iteration #  5     ecut=    60.00 Ry     beta= 0.40
     Davidson diagonalization with overlap

---- Real-time Memory Report at c_bands before calling an iterative solver
           530 MiB given to the printing process from OS
             0 MiB allocation reported by mallinfo(arena+hblkhd)
        370932 MiB available memory on the node where the printing process lives
------------------
     ethr =  1.83E-06,  avg # of iterations =  7.0

     negative rho (up, down):  4.446E-02 0.000E+00

     total cpu time spent up to now is       14.7 secs

     total energy              =    -111.14573331 Ry
     estimated scf accuracy    <       0.00001043 Ry

     iteration #  6     ecut=    60.00 Ry     beta= 0.40
     Davidson diagonalization with overlap

---- Real-time Memory Report at c_bands before calling an iterative solver
           530 MiB given to the printing process from OS
             0 MiB allocation reported by mallinfo(arena+hblkhd)
        371333 MiB available memory on the node where the printing process lives
------------------
     ethr =  4.17E-08,  avg # of iterations =  5.0

     negative rho (up, down):  4.435E-02 0.000E+00

     total cpu time spent up to now is       16.3 secs

     total energy              =    -111.14574585 Ry
     estimated scf accuracy    <       0.00000118 Ry

     iteration #  7     ecut=    60.00 Ry     beta= 0.40
     Davidson diagonalization with overlap

---- Real-time Memory Report at c_bands before calling an iterative solver
           531 MiB given to the printing process from OS
             0 MiB allocation reported by mallinfo(arena+hblkhd)
        370905 MiB available memory on the node where the printing process lives
------------------
     ethr =  4.72E-09,  avg # of iterations =  2.0

     negative rho (up, down):  4.429E-02 0.000E+00

     total cpu time spent up to now is       17.8 secs

     total energy              =    -111.14574595 Ry
     estimated scf accuracy    <       0.00000030 Ry

     iteration #  8     ecut=    60.00 Ry     beta= 0.40
     Davidson diagonalization with overlap

---- Real-time Memory Report at c_bands before calling an iterative solver
           532 MiB given to the printing process from OS
             0 MiB allocation reported by mallinfo(arena+hblkhd)
        370870 MiB available memory on the node where the printing process lives
------------------
     ethr =  1.21E-09,  avg # of iterations =  2.0

     negative rho (up, down):  4.427E-02 0.000E+00

     total cpu time spent up to now is       19.3 secs

     total energy              =    -111.14574608 Ry
     estimated scf accuracy    <       0.00000013 Ry

     iteration #  9     ecut=    60.00 Ry     beta= 0.40
     Davidson diagonalization with overlap

---- Real-time Memory Report at c_bands before calling an iterative solver
           535 MiB given to the printing process from OS
             0 MiB allocation reported by mallinfo(arena+hblkhd)
        371225 MiB available memory on the node where the printing process lives
------------------
     ethr =  5.19E-10,  avg # of iterations =  2.0

     negative rho (up, down):  4.425E-02 0.000E+00

     total cpu time spent up to now is       20.8 secs

     End of self-consistent calculation

          k = 0.0000 0.0000 0.0000 ( 95217 PWs)   bands (ev):

   -21.7285 -20.9123 -20.7445 -13.1453 -10.6277 -10.4916  -9.4449  -8.7450
    -8.7208  -8.2479  -8.1268  -7.7847  -5.0150  -0.9768  -0.5360  -0.3756
    -0.3464

     occupation numbers 
     1.0000   1.0000   1.0000   1.0000   1.0000   1.0000   1.0000   1.0000
     1.0000   1.0000   1.0000   1.0000   0.5000   0.0000   0.0000   0.0000
     0.0000

     the Fermi energy is    -4.9871 ev

!    total energy              =    -111.14574618 Ry
     estimated scf accuracy    <          9.3E-09 Ry
     smearing contrib. (-TS)   =      -0.00482420 Ry
     internal energy E=F+TS    =    -111.14092199 Ry

     The total energy is F=E-TS. E is the sum of the following terms:
     one-electron contribution =    -400.51904114 Ry
     hartree contribution      =     202.45217038 Ry
     xc contribution           =     -33.97751045 Ry
     ewald contribution        =     120.90749947 Ry
     Dispersion Correction     =      -0.00404025 Ry
     one-center paw contrib.   =       0.00000000 Ry
      -> PAW hartree energy AE =       0.00000000 Ry
      -> PAW hartree energy PS =       0.00000000 Ry
      -> PAW xc energy AE      =       0.00000000 Ry
      -> PAW xc energy PS      =       0.00000000 Ry
      -> total E_H with PAW    =     202.45217038 Ry
      -> total E_XC with PAW   =     -33.97751045 Ry

     convergence has been achieved in   9 iterations

     negative rho (up, down):  4.425E-02 0.000E+00

     Forces acting on atoms (cartesian axes, Ry/au):

     atom    1 type  3   force =     0.01884455   -0.00099245   -0.01526131
     atom    2 type  4   force =     0.00753321    0.01069648    0.00438567
     atom    3 type  4   force =    -0.02339539    0.00281965    0.01152001
     atom    4 type  4   force =    -0.00298236   -0.01252368   -0.00064436
     The non-local contrib.  to forces
     atom    1 type  3   force =     0.01418469   -0.03683377    0.13523397
     atom    2 type  4   force =    -0.14472158   -0.09671846   -0.08828199
     atom    3 type  4   force =     0.15730181   -0.03967272   -0.07550649
     atom    4 type  4   force =    -0.06165591    0.18547661   -0.01986114
     The ionic contribution  to forces
     atom    1 type  3   force =    -0.30015296    0.78008143   -3.99989191
     atom    2 type  4   force =     5.29855820    4.01459332    2.59159139
     atom    3 type  4   force =    -6.70013354    1.55824638    2.40854063
     atom    4 type  4   force =     1.70172831   -6.35292114   -1.00024011
     The local contribution  to forces
     atom    1 type  3   force =     0.30621514   -0.74669052    3.85640206
     atom    2 type  4   force =    -5.14631591   -3.90719457   -2.49858427
     atom    3 type  4   force =     6.51812969   -1.51559576   -2.32046674
     atom    4 type  4   force =    -1.64309772    6.15474057    1.01980867
     The core correction contribution to forces
     atom    1 type  3   force =    -0.00139436    0.00241254   -0.00691681
     atom    2 type  4   force =    -0.00088707   -0.00100125   -0.00048955
     atom    3 type  4   force =     0.00224619   -0.00034765   -0.00108826
     atom    4 type  4   force =    -0.00001140    0.00138608   -0.00004356
     The Hubbard contrib.    to forces
     atom    1 type  3   force =     0.00000000    0.00000000    0.00000000
     atom    2 type  4   force =     0.00000000    0.00000000    0.00000000
     atom    3 type  4   force =     0.00000000    0.00000000    0.00000000
     atom    4 type  4   force =     0.00000000    0.00000000    0.00000000
     The SCF correction term to forces
     atom    1 type  3   force =    -0.00000146    0.00001610   -0.00005643
     atom    2 type  4   force =     0.00009336    0.00008071   -0.00003615
     atom    3 type  4   force =    -0.00011640    0.00004616   -0.00002980
     atom    4 type  4   force =     0.00004181   -0.00011051   -0.00007330

     Dispersion contribution to forces:
     atom    1 type  3   force =    -0.00000378    0.00002015   -0.00002964
     atom    2 type  4   force =     0.00080892    0.00093512    0.00018879
     atom    3 type  4   force =    -0.00082042    0.00014163    0.00007321
     atom    4 type  4   force =     0.00001528   -0.00109690   -0.00023237

     Total force =     0.040417     Total SCF correction =     0.000236

     Total Dispersion Force =     0.001877


     Computing stress (Cartesian axis) and pressure


     negative rho (up, down):  4.425E-02 0.000E+00
          total   stress  (Ry/bohr**3)                   (kbar)     P=        0.40
   0.00000400   0.00000031  -0.00000112            0.59        0.05       -0.16
   0.00000031   0.00000299   0.00000075            0.05        0.44        0.11
  -0.00000112   0.00000075   0.00000109           -0.16        0.11        0.16

     kinetic stress (kbar)    145.53      0.51      0.24
                                0.51    146.76     -1.58
                                0.24     -1.58    152.66

     local   stress (kbar)  -1989.56      4.06     12.38
                                4.06  -2083.71    -66.79
                               12.38    -66.79   1402.15

     nonloc. stress (kbar)    136.52      0.01     -0.10
                                0.01    136.39      0.20
                               -0.10      0.20    135.70

     hartree stress (kbar)    943.82     -1.31     -4.77
                               -1.31    991.95     25.77
                               -4.77     25.77   -708.82

     exc-cor stress (kbar)     43.40     -0.00     -0.01
                               -0.00     43.38      0.03
                               -0.01      0.03     43.26

     corecor stress (kbar)    -90.39      0.00      0.01
                                0.00    -90.37     -0.03
                                0.01     -0.03    -90.28

     ewald   stress (kbar)    811.24     -3.22     -7.92
                               -3.22    856.02     42.49
                               -7.92     42.49   -934.51

     hubbard stress (kbar)      0.00      0.00      0.00
                                0.00      0.00      0.00
                                0.00      0.00      0.00

     DFT-D   stress (kbar)      0.03      0.01      0.00
                                0.01      0.03      0.01
                                0.00      0.01      0.00

     XDM     stress (kbar)      0.00      0.00      0.00
                                0.00      0.00      0.00
                                0.00      0.00      0.00

     dft-nl  stress (kbar)      0.00      0.00      0.00
                                0.00      0.00      0.00
                                0.00      0.00      0.00

     TS-vdW  stress (kbar)      0.00      0.00      0.00
                                0.00      0.00      0.00
                                0.00      0.00      0.00


                                0.00      0.00      0.00
                                0.00      0.00      0.00


                                0.00      0.00      0.00


     Writing output data file ./out/aiida.save/
 
     init_run     :      5.10s CPU      5.49s WALL (       1 calls)
     electrons    :     12.77s CPU     15.14s WALL (       1 calls)
     forces       :      2.91s CPU      3.05s WALL (       1 calls)
     force_london :      0.00s CPU      0.00s WALL (       1 calls)
     stress       :      7.53s CPU      7.91s WALL (       1 calls)
     stres_london :      0.00s CPU      0.00s WALL (       1 calls)

     Called by init_run:
     wfcinit      :      0.04s CPU      0.05s WALL (       1 calls)
     wfcinit:atom :      0.00s CPU      0.00s WALL (       1 calls)
     wfcinit:wfcr :      0.04s CPU      0.05s WALL (       1 calls)
     potinit      :      1.64s CPU      1.70s WALL (       1 calls)
     hinit0       :      2.34s CPU      2.53s WALL (       1 calls)

     Called by electrons:
     c_bands      :      1.47s CPU      1.50s WALL (      10 calls)
     sum_band     :      5.76s CPU      6.86s WALL (      10 calls)
     v_of_rho     :      1.63s CPU      1.79s WALL (      10 calls)
     v_h          :      0.16s CPU      0.18s WALL (      10 calls)
     v_xc         :      1.76s CPU      1.92s WALL (      12 calls)
     newd         :      3.85s CPU      4.93s WALL (      10 calls)
     PAW_pot      :      0.01s CPU      0.01s WALL (      10 calls)
     mix_rho      :      0.30s CPU      0.34s WALL (      10 calls)
     energy_londo :      0.00s CPU      0.00s WALL (       1 calls)

     Called by c_bands:
     init_us_2    :      0.03s CPU      0.03s WALL (      21 calls)
     regterg      :      1.35s CPU      1.38s WALL (      10 calls)

     Called by sum_band:
     sum_band:wei :      0.00s CPU      0.00s WALL (      10 calls)
     sum_band:loo :      0.24s CPU      0.26s WALL (      10 calls)
     sum_band:buf :      0.00s CPU      0.00s WALL (      10 calls)
     sum_band:ini :      0.01s CPU      0.02s WALL (      10 calls)
     sum_band:cal :      0.01s CPU      0.01s WALL (      10 calls)
     sum_band:bec :      0.00s CPU      0.00s WALL (      10 calls)
     addusdens    :      4.98s CPU      6.05s WALL (      10 calls)
     addusd:skk   :      0.01s CPU      0.01s WALL (      40 calls)
     addusd:dgemm :      1.32s CPU      2.30s WALL (      40 calls)
     addusd:qvan2 :      3.50s CPU      3.54s WALL (      40 calls)

     Called by *egterg:
     rdiaghg      :      0.11s CPU      0.12s WALL (      49 calls)
     regterg:over :      0.17s CPU      0.17s WALL (      40 calls)
     regterg:upda :      0.03s CPU      0.04s WALL (      40 calls)
     regterg:last :      0.05s CPU      0.05s WALL (      24 calls)
     rdiaghg:chol :      0.01s CPU      0.01s WALL (      49 calls)
     rdiaghg:inve :      0.00s CPU      0.00s WALL (      49 calls)
     rdiaghg:para :      0.01s CPU      0.01s WALL (      98 calls)
     h_psi        :      0.92s CPU      0.94s WALL (      51 calls)
     s_psi        :      0.03s CPU      0.03s WALL (      51 calls)
     g_psi        :      0.00s CPU      0.00s WALL (      40 calls)

     Called by h_psi:
     h_psi:calbec :      0.06s CPU      0.06s WALL (      51 calls)
     vloc_psi     :      0.81s CPU      0.83s WALL (      51 calls)
     add_vuspsi   :      0.04s CPU      0.04s WALL (      51 calls)

     General routines
     calbec       :      0.09s CPU      0.10s WALL (      66 calls)
     fft          :      2.19s CPU      2.40s WALL (     129 calls)
     ffts         :      0.06s CPU      0.06s WALL (      20 calls)
     fftw         :      0.57s CPU      0.59s WALL (     614 calls)
     interpolate  :      0.17s CPU      0.19s WALL (      10 calls)
 
     Parallel routines

     PAW routines
     PAW_pot      :      0.01s CPU      0.01s WALL (      10 calls)
 
     PWSCF        :     28.65s CPU     32.18s WALL

 
   This run was terminated on:   8: 8:20  13Aug2025            

=------------------------------------------------------------------------------=
   JOB DONE.
=------------------------------------------------------------------------------=
