DIM-GROUP
3 1
PRIMVEC
10.0555639621 0.0000000000 0.0000000000
0.0000000000 8.7083697802 0.0000000000
0.0000000000 0.0000000000 41.0756715617
PRIMCOORD
84 1
H 5.6021318332 0.7985371336 9.3971679121
H 0.5742272802 0.7986670128 9.3974958363
H 8.1158789672 5.1507049866 9.4003541704
H 3.0880722809 5.1519997387 9.3987905836
H 4.9884374271 4.2265215772 10.0473247137
H -0.0391049453 4.2266629385 10.0463603351
H 2.4747905645 8.5809182607 10.0470948069
H 7.5024024057 8.5805368342 10.0469566992
O 1.4335400000 1.1984700000 9.6339000000
O 6.4612300000 1.1984100000 9.6339600000
O 3.9473300000 5.5525700000 9.6340000000
O 8.9750000000 5.5525400000 9.6340000000
O 3.3265200000 8.0971500000 10.1805100000
O 8.3542800000 8.0971400000 10.1805200000
O 0.8125600000 3.7430200000 10.1805300000
O 5.8403400000 3.7429800000 10.1806000000
Si 1.3432600000 2.3361100000 10.7928300000
Si 3.8572300000 6.6902700000 10.7928700000
Si 8.8849600000 6.6902500000 10.7928800000
Si 6.3709900000 2.3360400000 10.7929000000
O 0.3538364057 6.8929308609 11.3200372442
O 2.8672803060 2.5378041967 11.3216292682
O 5.3809601094 6.8907645120 11.3230128050
O 7.8952638555 2.5362989141 11.3211991719
O 0.3385402784 1.7807315416 11.9645049543
O 2.8526373542 6.1346649072 11.9643305655
O 5.3663696925 1.7815027436 11.9647474409
O 7.8804303371 6.1352260451 11.9648073666
Si 1.3453183121 6.3921310018 12.5182016294
Si 8.8868589434 2.0365182174 12.5197757150
Si 3.8594494219 2.0386053230 12.5200553481
Si 6.3735698048 6.3915817510 12.5211447156
O 0.7506407356 5.0156149757 13.1309138735
O 5.7816798021 5.0155751232 13.1378468186
O 3.2667754117 0.6619205038 13.1343559065
O 8.2940762447 0.6605456244 13.1359025509
O 8.9350843633 3.1872215193 13.6677045137
O 1.3945668602 7.5418789334 13.6670656062
O 3.9089877941 3.1888449676 13.6686004703
O 6.4226253560 7.5417126847 13.6697679005
Si 9.9025975266 4.3304182449 14.2938505566
Si 2.3616574368 -0.0241111701 14.2956782767
Si 4.8766965613 4.3296307425 14.2996237434
Si 7.3900500813 -0.0247843337 14.2988592324
O 8.9302589068 5.4290101680 14.9939260521
O 1.3893803872 1.0750156778 14.9953553394
O 3.9060754731 5.4284939638 15.0021717660
O 6.4190012267 1.0736988332 15.0010547536
O 0.8845181485 3.6774925358 15.3632628404
O 3.3978206390 8.0303317431 15.3657843656
O 5.9125519930 3.6742926401 15.3696843151
O 8.4260566594 8.0294938533 15.3694374736
Si 1.4166640168 2.3098439625 16.0541585252
Si 3.9293133334 6.6641686611 16.0602535038
Si 6.4421086605 2.3062561255 16.0626138204
Si 8.9564353845 6.6595112303 16.0575474610
O 2.9422237791 2.4805044697 16.5779310623
O 5.4537247355 6.8365499746 16.5877106883
O 7.9664064060 2.4741971171 16.5918519236
O 0.4258175155 6.8262240860 16.5838625552
O 7.9990303562 6.3339238667 17.3297206370
O 5.4823505466 1.9848227554 17.3343201325
O 0.4613169272 1.9886694146 17.3286683079
O 2.9712732131 6.3454500244 17.3334888417
Si 6.4644554679 6.5497510532 17.8373973538
Si 3.9450114315 2.1993307652 17.8355761575
Si 8.9819253264 2.1927706461 17.8387799891
Si 1.4343429651 6.5513471373 17.8379254508
O 6.1617859446 5.1834058906 18.6558537638
O 1.1426337734 5.1801690037 18.6539880114
O 3.6408048864 0.8330801308 18.6534571190
O 8.6935509223 0.8189361858 18.6518710508
H 5.2944875000 4.6907722406 18.6916973383
H 0.2767527079 4.6864821966 18.6961314164
H 7.8266659709 0.3258236352 18.6936729449
H 2.7739303105 0.3404448442 18.6910629269
O 3.9525849739 3.5923187413 18.7289229693
O 6.4817526062 7.9414378502 18.7333484253
O 8.9882950756 3.5814096102 18.7389673373
O 1.4335555213 7.9429531791 18.7327097617
H 3.1025033605 4.0866396126 18.7518943847
H 8.1388993752 4.0761297110 18.7600939715
H 5.6344217343 8.4390791333 18.7573252124
H 0.5820510648 8.4356053440 18.7511022432
