
     Program PWSCF v.6.8 starts on 13Aug2025 at  8:17:48 

     This program is part of the open-source Quantum ESPRESSO suite
     for quantum simulation of materials; please cite
         "P. Giannozzi et al., J. Phys.:Condens. Matter 21 395502 (2009);
         "P. Giannozzi et al., J. Phys.:Condens. Matter 29 465901 (2017);
         "P. Giannozzi et al., J. Chem. Phys. 152 154105 (2020);
          URL http://www.quantum-espresso.org", 
     in publications or presentations arising from this work. More details at
     http://www.quantum-espresso.org/quote

     Parallel version (MPI), running on    32 processors

     MPI processes distributed on     1 nodes
     R & G space division:  proc/nbgrp/npool/nimage =      32
     377150 MiB available memory on the printing compute node when the environment starts
 
     Reading input from pwscf.in

     Current dimensions of program PWSCF are:
     Max number of different atomic species (ntypx) = 10
     Max number of k-points (npk) =  40000
     Max angular momentum in pseudopotentials (lmaxx) =  4
     file O.pbesol-n-kjpaw_psl.0.1.UPF: wavefunction(s)  2P renormalized

     -------------------------------------------------
     Parameters for Dispersion (Grimme-D2) Correction:
     -------------------------------------------------
       atom      VdW radius       C_6     

        H          1.892          4.857
        O          2.536         24.284
        Si         3.243        320.200
        Cl         3.097        175.885

     gamma-point specific algorithms are used

     Subspace diagonalization in iterative solution of the eigenvalue problem:
     one sub-group per band group will be used
     scalapack distributed-memory algorithm (size of sub-group:  5*  5 procs)

 
     Parallelization info
     --------------------
     sticks:   dense  smooth     PW     G-vecs:    dense   smooth      PW
     Min         372     185     45               134676    47598    5939
     Max         374     188     48               134738    47640    5984
     Sum       11959    5957   1483              4310687  1523803  190433
 
     Using Slab Decomposition
 


     bravais-lattice index     =            0
     lattice parameter (alat)  =      19.0023  a.u.
     unit-cell volume          =   24273.0715 (a.u.)^3
     number of atoms/cell      =            4
     number of atomic types    =            4
     number of electrons       =        25.00
     number of Kohn-Sham states=           17
     kinetic-energy cutoff     =      60.0000  Ry
     charge density cutoff     =     480.0000  Ry
     scf convergence threshold =      1.5E-08
     mixing beta               =       0.4000
     number of iterations used =            8  plain     mixing
     Exchange-correlation= SLA  PW   PSX  PSC
                           (   1   4  10   8   0   0   0)

     celldm(1)=  19.002262  celldm(2)=   0.000000  celldm(3)=   0.000000
     celldm(4)=   0.000000  celldm(5)=   0.000000  celldm(6)=   0.000000

     crystal axes: (cart. coord. in units of alat)
               a(1) = (   1.000000   0.000000   0.000000 )  
               a(2) = (   0.000000   0.866025   0.000000 )  
               a(3) = (   0.000000   0.000000   4.084870 )  

     reciprocal axes: (cart. coord. in units 2 pi/alat)
               b(1) = (  1.000000  0.000000  0.000000 )  
               b(2) = (  0.000000  1.154701  0.000000 )  
               b(3) = (  0.000000  0.000000  0.244806 )  


     PseudoPot. # 1 for H  read from file:
     ./pseudo/H.pbesol-rrkjus_psl.1.0.0.UPF
     MD5 check sum: 0324ed591cc0147dc3d88cad0d33f665
     Pseudo is Ultrasoft, Zval =  1.0
     Generated using "atomic" code by A. Dal Corso  v.6.0 svn rev. 13079
     Using radial grid of  929 points,  2 beta functions with: 
                l(1) =   0
                l(2) =   0
     Q(r) pseudized with 0 coefficients 


     PseudoPot. # 2 for O  read from file:
     ./pseudo/O.pbesol-n-kjpaw_psl.0.1.UPF
     MD5 check sum: 81d73d1479e654e5638b0319f0d6c2c7
     Pseudo is Projector augmented-wave + core cor, Zval =  6.0
     Generated using "atomic" code by A. Dal Corso  v.6.0 svn rev. 13079
     Shape of augmentation charge: BESSEL
     Using radial grid of 1095 points,  4 beta functions with: 
                l(1) =   0
                l(2) =   0
                l(3) =   1
                l(4) =   1
     Q(r) pseudized with 0 coefficients 


     PseudoPot. # 3 for Si read from file:
     ./pseudo/Si.pbesol-n-rrkjus_psl.1.0.0.UPF
     MD5 check sum: c4212819de858c94c3a1644338846ac9
     Pseudo is Ultrasoft + core correction, Zval =  4.0
     Generated using "atomic" code by A. Dal Corso  v.6.0 svn rev. 13079
     Using radial grid of 1141 points,  6 beta functions with: 
                l(1) =   0
                l(2) =   0
                l(3) =   1
                l(4) =   1
                l(5) =   2
                l(6) =   2
     Q(r) pseudized with 0 coefficients 


     PseudoPot. # 4 for Cl read from file:
     ./pseudo/cl_pbesol_v1.4.uspp.F.UPF
     MD5 check sum: ed6bbcf06f19043c0df9f6394706ff8f
     Pseudo is Ultrasoft + core correction, Zval =  7.0
     Generated by new atomic code, or converted to UPF format
     Using radial grid of  909 points,  6 beta functions with: 
                l(1) =   0
                l(2) =   0
                l(3) =   1
                l(4) =   1
                l(5) =   2
                l(6) =   2
     Q(r) pseudized with  8 coefficients,  rinner =    1.300   1.300   1.300
                                                       1.300   1.300

     atomic species   valence    mass     pseudopotential
        H              1.00     1.00794     H ( 1.00)
        O              6.00    15.99940     O ( 1.00)
        Si             4.00    28.08550     Si( 1.00)
        Cl             7.00    35.45300     Cl( 1.00)

     No symmetry found


                                    s                        frac. trans.

      isym =  1     identity                                     

 cryst.   s( 1) = (     1          0          0      )
                  (     0          1          0      )
                  (     0          0          1      )

 cart.    s( 1) = (  1.0000000  0.0000000  0.0000000 )
                  (  0.0000000  1.0000000  0.0000000 )
                  (  0.0000000  0.0000000  1.0000000 )


   Cartesian axes

     site n.     atom                  positions (alat units)
         1           Cl  tau(   1) = (   0.5734636   0.3241879   2.5378545  )
         2           Si  tau(   2) = (   0.4489420   0.4592050   2.4511193  )
         3           Cl  tau(   3) = (   0.2649183   0.4418698   2.5360034  )
         4           Cl  tau(   4) = (   0.5199470   0.6454509   2.5029186  )

   Crystallographic axes

     site n.     atom                  positions (cryst. coord.)
         1           Cl  tau(   1) = (  0.5734636  0.3743400  0.6212816  )
         2           Si  tau(   2) = (  0.4489420  0.5302443  0.6000483  )
         3           Cl  tau(   3) = (  0.2649183  0.5102274  0.6208284  )
         4           Cl  tau(   4) = (  0.5199470  0.7453025  0.6127291  )

     number of k points=     1  Marzari-Vanderbilt smearing, width (Ry)=  0.0147
                       cart. coord. in units 2pi/alat
        k(    1) = (   0.0000000   0.0000000   0.0000000), wk =   2.0000000

                       cryst. coord.
        k(    1) = (   0.0000000   0.0000000   0.0000000), wk =   2.0000000

     Dense  grid:  2155344 G-vectors     FFT dimensions: ( 135, 120, 576)

     Smooth grid:   761902 G-vectors     FFT dimensions: (  96,  81, 384)

     Dynamical RAM for                 wfc:       0.77 MB

     Dynamical RAM for     wfc (w. buffer):       0.77 MB

     Dynamical RAM for           str. fact:       4.11 MB

     Dynamical RAM for           local pot:       0.00 MB

     Dynamical RAM for          nlocal pot:       3.27 MB

     Dynamical RAM for                qrad:       7.03 MB

     Dynamical RAM for          rho,v,vnew:       9.76 MB

     Dynamical RAM for               rhoin:       3.25 MB

     Dynamical RAM for            rho*nmix:      16.45 MB

     Dynamical RAM for           G-vectors:       4.04 MB

     Dynamical RAM for          h,s,v(r/c):       0.00 MB

     Dynamical RAM for          <psi|beta>:       0.01 MB

     Dynamical RAM for                 psi:       1.54 MB

     Dynamical RAM for                hpsi:       1.54 MB

     Dynamical RAM for                spsi:       1.54 MB

     Dynamical RAM for      wfcinit/wfcrot:       1.55 MB

     Dynamical RAM for           addusdens:     194.26 MB

     Dynamical RAM for          addusforce:     198.89 MB

     Dynamical RAM for         addusstress:     206.59 MB

     Estimated static dynamical RAM per process >      48.49 MB

     Estimated max dynamical RAM per process >     271.53 MB

     Estimated total dynamical RAM >       8.49 GB

     Initial potential from superposition of free atoms

     starting charge   24.99944, renormalised to   25.00000

     negative rho (up, down):  4.513E-02 0.000E+00
     Starting wfcs are   16 randomized atomic wfcs +    1 random wfcs
     Checking if some PAW data can be deallocated... 
       PAW data deallocated on   32 nodes for type:  2

     total cpu time spent up to now is        5.8 secs

     Self-consistent Calculation

     iteration #  1     ecut=    60.00 Ry     beta= 0.40
     Davidson diagonalization with overlap

---- Real-time Memory Report at c_bands before calling an iterative solver
           440 MiB given to the printing process from OS
             0 MiB allocation reported by mallinfo(arena+hblkhd)
        374427 MiB available memory on the node where the printing process lives
------------------
     ethr =  1.00E-02,  avg # of iterations =  6.0

     Threshold (ethr) on eigenvalues was too large:
     Diagonalizing with lowered threshold

     Davidson diagonalization with overlap

---- Real-time Memory Report at c_bands before calling an iterative solver
           474 MiB given to the printing process from OS
             0 MiB allocation reported by mallinfo(arena+hblkhd)
        374458 MiB available memory on the node where the printing process lives
------------------
     ethr =  3.41E-04,  avg # of iterations =  6.0

     negative rho (up, down):  4.539E-02 0.000E+00

     total cpu time spent up to now is        8.2 secs

     total energy              =    -111.13652754 Ry
     estimated scf accuracy    <       0.08927131 Ry

     iteration #  2     ecut=    60.00 Ry     beta= 0.40
     Davidson diagonalization with overlap

---- Real-time Memory Report at c_bands before calling an iterative solver
           524 MiB given to the printing process from OS
             0 MiB allocation reported by mallinfo(arena+hblkhd)
        372946 MiB available memory on the node where the printing process lives
------------------
     ethr =  3.57E-04,  avg # of iterations =  2.0

     negative rho (up, down):  4.503E-02 0.000E+00

     total cpu time spent up to now is        9.7 secs

     total energy              =    -111.14394263 Ry
     estimated scf accuracy    <       0.01229805 Ry

     iteration #  3     ecut=    60.00 Ry     beta= 0.40
     Davidson diagonalization with overlap

---- Real-time Memory Report at c_bands before calling an iterative solver
           532 MiB given to the printing process from OS
             0 MiB allocation reported by mallinfo(arena+hblkhd)
        372388 MiB available memory on the node where the printing process lives
------------------
     ethr =  4.92E-05,  avg # of iterations =  3.0

     negative rho (up, down):  4.472E-02 0.000E+00

     total cpu time spent up to now is       11.2 secs

     total energy              =    -111.14539826 Ry
     estimated scf accuracy    <       0.00212988 Ry

     iteration #  4     ecut=    60.00 Ry     beta= 0.40
     Davidson diagonalization with overlap

---- Real-time Memory Report at c_bands before calling an iterative solver
           533 MiB given to the printing process from OS
             0 MiB allocation reported by mallinfo(arena+hblkhd)
        372652 MiB available memory on the node where the printing process lives
------------------
     ethr =  8.52E-06,  avg # of iterations =  5.0

     negative rho (up, down):  4.453E-02 0.000E+00

     total cpu time spent up to now is       12.7 secs

     total energy              =    -111.14553846 Ry
     estimated scf accuracy    <       0.00043993 Ry

     iteration #  5     ecut=    60.00 Ry     beta= 0.40
     Davidson diagonalization with overlap

---- Real-time Memory Report at c_bands before calling an iterative solver
           534 MiB given to the printing process from OS
             0 MiB allocation reported by mallinfo(arena+hblkhd)
        372308 MiB available memory on the node where the printing process lives
------------------
     ethr =  1.76E-06,  avg # of iterations =  4.0

     negative rho (up, down):  4.440E-02 0.000E+00

     total cpu time spent up to now is       14.2 secs

     total energy              =    -111.14556835 Ry
     estimated scf accuracy    <       0.00001083 Ry

     iteration #  6     ecut=    60.00 Ry     beta= 0.40
     Davidson diagonalization with overlap

---- Real-time Memory Report at c_bands before calling an iterative solver
           534 MiB given to the printing process from OS
             0 MiB allocation reported by mallinfo(arena+hblkhd)
        372390 MiB available memory on the node where the printing process lives
------------------
     ethr =  4.33E-08,  avg # of iterations =  5.0

     negative rho (up, down):  4.430E-02 0.000E+00

     total cpu time spent up to now is       15.8 secs

     total energy              =    -111.14557998 Ry
     estimated scf accuracy    <       0.00000121 Ry

     iteration #  7     ecut=    60.00 Ry     beta= 0.40
     Davidson diagonalization with overlap

---- Real-time Memory Report at c_bands before calling an iterative solver
           535 MiB given to the printing process from OS
             0 MiB allocation reported by mallinfo(arena+hblkhd)
        372280 MiB available memory on the node where the printing process lives
------------------
     ethr =  4.86E-09,  avg # of iterations =  2.0

     negative rho (up, down):  4.425E-02 0.000E+00

     total cpu time spent up to now is       17.3 secs

     total energy              =    -111.14558013 Ry
     estimated scf accuracy    <       0.00000028 Ry

     iteration #  8     ecut=    60.00 Ry     beta= 0.40
     Davidson diagonalization with overlap

---- Real-time Memory Report at c_bands before calling an iterative solver
           537 MiB given to the printing process from OS
             0 MiB allocation reported by mallinfo(arena+hblkhd)
        372250 MiB available memory on the node where the printing process lives
------------------
     ethr =  1.13E-09,  avg # of iterations =  2.0

     negative rho (up, down):  4.422E-02 0.000E+00

     total cpu time spent up to now is       18.8 secs

     total energy              =    -111.14558023 Ry
     estimated scf accuracy    <       0.00000013 Ry

     iteration #  9     ecut=    60.00 Ry     beta= 0.40
     Davidson diagonalization with overlap

---- Real-time Memory Report at c_bands before calling an iterative solver
           537 MiB given to the printing process from OS
             0 MiB allocation reported by mallinfo(arena+hblkhd)
        372287 MiB available memory on the node where the printing process lives
------------------
     ethr =  5.30E-10,  avg # of iterations =  2.0

     negative rho (up, down):  4.420E-02 0.000E+00

     total cpu time spent up to now is       20.3 secs

     End of self-consistent calculation

          k = 0.0000 0.0000 0.0000 ( 95217 PWs)   bands (ev):

   -21.6371 -20.8124 -20.6745 -13.1176 -10.5263 -10.4346  -9.3948  -8.6797
    -8.6730  -8.1350  -8.0422  -7.7316  -5.2697  -0.9048  -0.6848  -0.5462
    -0.3896

     occupation numbers 
     1.0000   1.0000   1.0000   1.0000   1.0000   1.0000   1.0000   1.0000
     1.0000   1.0000   1.0000   1.0000   0.5000   0.0000   0.0000   0.0000
     0.0000

     the Fermi energy is    -5.2418 ev

!    total energy              =    -111.14558033 Ry
     estimated scf accuracy    <          4.5E-09 Ry
     smearing contrib. (-TS)   =      -0.00482420 Ry
     internal energy E=F+TS    =    -111.14075614 Ry

     The total energy is F=E-TS. E is the sum of the following terms:
     one-electron contribution =    -400.84433056 Ry
     hartree contribution      =     202.65133865 Ry
     xc contribution           =     -33.94986751 Ry
     ewald contribution        =     121.00614746 Ry
     Dispersion Correction     =      -0.00404418 Ry
     one-center paw contrib.   =       0.00000000 Ry
      -> PAW hartree energy AE =       0.00000000 Ry
      -> PAW hartree energy PS =       0.00000000 Ry
      -> PAW xc energy AE      =       0.00000000 Ry
      -> PAW xc energy PS      =       0.00000000 Ry
      -> total E_H with PAW    =     202.65133865 Ry
      -> total E_XC with PAW   =     -33.94986751 Ry

     convergence has been achieved in   9 iterations

     negative rho (up, down):  4.420E-02 0.000E+00

     Forces acting on atoms (cartesian axes, Ry/au):

     atom    1 type  4   force =     0.00681753   -0.01144432    0.00017255
     atom    2 type  3   force =     0.00529822    0.01700922    0.00848672
     atom    3 type  4   force =    -0.01087269   -0.00375292   -0.00076900
     atom    4 type  4   force =    -0.00124306   -0.00181198   -0.00789026
     The non-local contrib.  to forces
     atom    1 type  4   force =    -0.12069526    0.12347696   -0.09144158
     atom    2 type  3   force =     0.00753720    0.02500525    0.13337499
     atom    3 type  4   force =     0.17435013    0.01042198   -0.09087918
     atom    4 type  4   force =    -0.07052419   -0.18984388   -0.06491489
     The ionic contribution  to forces
     atom    1 type  4   force =     4.55286455   -4.75704259    2.11312386
     atom    2 type  3   force =    -0.19583978   -0.42850281   -4.37654274
     atom    3 type  4   force =    -6.87314947   -0.80535483    1.98999769
     atom    4 type  4   force =     2.51612470    5.99090023    0.27342118
     The local contribution  to forces
     atom    1 type  4   force =    -4.42520044    4.62194756   -2.02130310
     atom    2 type  3   force =     0.19420444    0.42279157    4.25798053
     atom    3 type  4   force =     6.68771554    0.79108134   -1.89974993
     atom    4 type  4   force =    -2.44712102   -5.80383117   -0.21663235
     The core correction contribution to forces
     atom    1 type  4   force =    -0.00086617    0.00117505   -0.00027430
     atom    2 type  3   force =    -0.00060203   -0.00226670   -0.00625004
     atom    3 type  4   force =     0.00134782    0.00032578   -0.00018603
     atom    4 type  4   force =    -0.00018637   -0.00030348    0.00040349
     The Hubbard contrib.    to forces
     atom    1 type  4   force =     0.00000000    0.00000000    0.00000000
     atom    2 type  3   force =     0.00000000    0.00000000    0.00000000
     atom    3 type  4   force =     0.00000000    0.00000000    0.00000000
     atom    4 type  4   force =     0.00000000    0.00000000    0.00000000
     The SCF correction term to forces
     atom    1 type  4   force =     0.00006825   -0.00005019   -0.00001588
     atom    2 type  3   force =    -0.00000071   -0.00000359   -0.00004007
     atom    3 type  4   force =    -0.00006534   -0.00000474   -0.00002635
     atom    4 type  4   force =     0.00004420    0.00007281   -0.00004008

     Dispersion contribution to forces:
     atom    1 type  4   force =     0.00064812   -0.00095248    0.00008485
     atom    2 type  3   force =     0.00000061   -0.00001586   -0.00003464
     atom    3 type  4   force =    -0.00106986   -0.00022381    0.00007610
     atom    4 type  4   force =     0.00042113    0.00119215   -0.00012631

     Total force =     0.027692     Total SCF correction =     0.000151

     Total Dispersion Force =     0.002037


     Computing stress (Cartesian axis) and pressure


     negative rho (up, down):  4.420E-02 0.000E+00
          total   stress  (Ry/bohr**3)                   (kbar)     P=        0.15
   0.00000216  -0.00000067  -0.00000031            0.32       -0.10       -0.05
  -0.00000067   0.00000135  -0.00000110           -0.10        0.20       -0.16
  -0.00000031  -0.00000110  -0.00000037           -0.05       -0.16       -0.05

     kinetic stress (kbar)    145.86      0.20      0.16
                                0.20    146.46      0.53
                                0.16      0.53    151.80

     local   stress (kbar)  -1984.37      1.23     10.89
                                1.23  -2106.12     31.21
                               10.89     31.21   1417.72

     nonloc. stress (kbar)    136.44     -0.06     -0.05
                               -0.06    136.34     -0.16
                               -0.05     -0.16    135.59

     hartree stress (kbar)    942.55     -0.03     -4.34
                               -0.03   1002.10    -12.09
                               -4.34    -12.09   -716.49

     exc-cor stress (kbar)     43.43     -0.00     -0.00
                               -0.00     43.43     -0.02
                               -0.00     -0.02     43.30

     corecor stress (kbar)    -90.36      0.01      0.01
                                0.01    -90.35      0.02
                                0.01      0.02    -90.26

     ewald   stress (kbar)    806.75     -1.45     -6.70
                               -1.45    868.32    -19.65
                               -6.70    -19.65   -941.71

     hubbard stress (kbar)      0.00      0.00      0.00
                                0.00      0.00      0.00
                                0.00      0.00      0.00

     DFT-D   stress (kbar)      0.03      0.00     -0.00
                                0.00      0.03     -0.00
                               -0.00     -0.00      0.00

     XDM     stress (kbar)      0.00      0.00      0.00
                                0.00      0.00      0.00
                                0.00      0.00      0.00

     dft-nl  stress (kbar)      0.00      0.00      0.00
                                0.00      0.00      0.00
                                0.00      0.00      0.00

     TS-vdW  stress (kbar)      0.00      0.00      0.00
                                0.00      0.00      0.00
                                0.00      0.00      0.00


                                0.00      0.00      0.00
                                0.00      0.00      0.00


                                0.00      0.00      0.00


     Writing output data file ./out/aiida.save/
 
     init_run     :      4.95s CPU      5.39s WALL (       1 calls)
     electrons    :     12.32s CPU     14.64s WALL (       1 calls)
     forces       :      2.92s CPU      3.04s WALL (       1 calls)
     force_london :      0.00s CPU      0.00s WALL (       1 calls)
     stress       :      7.35s CPU      7.73s WALL (       1 calls)
     stres_london :      0.00s CPU      0.00s WALL (       1 calls)

     Called by init_run:
     wfcinit      :      0.05s CPU      0.07s WALL (       1 calls)
     wfcinit:atom :      0.00s CPU      0.00s WALL (       1 calls)
     wfcinit:wfcr :      0.04s CPU      0.07s WALL (       1 calls)
     potinit      :      1.51s CPU      1.57s WALL (       1 calls)
     hinit0       :      2.29s CPU      2.51s WALL (       1 calls)

     Called by electrons:
     c_bands      :      1.24s CPU      1.28s WALL (      10 calls)
     sum_band     :      5.57s CPU      6.66s WALL (      10 calls)
     v_of_rho     :      1.60s CPU      1.75s WALL (      10 calls)
     v_h          :      0.16s CPU      0.18s WALL (      10 calls)
     v_xc         :      1.73s CPU      1.88s WALL (      12 calls)
     newd         :      3.87s CPU      4.91s WALL (      10 calls)
     PAW_pot      :      0.01s CPU      0.01s WALL (      10 calls)
     mix_rho      :      0.31s CPU      0.33s WALL (      10 calls)
     energy_londo :      0.00s CPU      0.00s WALL (       1 calls)

     Called by c_bands:
     init_us_2    :      0.03s CPU      0.04s WALL (      21 calls)
     regterg      :      1.13s CPU      1.16s WALL (      10 calls)

     Called by sum_band:
     sum_band:wei :      0.00s CPU      0.00s WALL (      10 calls)
     sum_band:loo :      0.24s CPU      0.24s WALL (      10 calls)
     sum_band:buf :      0.00s CPU      0.00s WALL (      10 calls)
     sum_band:ini :      0.02s CPU      0.02s WALL (      10 calls)
     sum_band:cal :      0.01s CPU      0.01s WALL (      10 calls)
     sum_band:bec :      0.00s CPU      0.00s WALL (      10 calls)
     addusdens    :      5.08s CPU      6.15s WALL (      10 calls)
     addusd:skk   :      0.01s CPU      0.01s WALL (      40 calls)
     addusd:dgemm :      1.35s CPU      2.31s WALL (      40 calls)
     addusd:qvan2 :      3.56s CPU      3.60s WALL (      40 calls)

     Called by *egterg:
     rdiaghg      :      0.10s CPU      0.11s WALL (      46 calls)
     regterg:over :      0.04s CPU      0.04s WALL (      37 calls)
     regterg:upda :      0.03s CPU      0.03s WALL (      37 calls)
     regterg:last :      0.05s CPU      0.05s WALL (      23 calls)
     rdiaghg:chol :      0.01s CPU      0.01s WALL (      46 calls)
     rdiaghg:inve :      0.00s CPU      0.00s WALL (      46 calls)
     rdiaghg:para :      0.01s CPU      0.01s WALL (      92 calls)
     h_psi        :      0.87s CPU      0.89s WALL (      48 calls)
     s_psi        :      0.03s CPU      0.03s WALL (      48 calls)
     g_psi        :      0.00s CPU      0.00s WALL (      37 calls)

     Called by h_psi:
     h_psi:calbec :      0.04s CPU      0.05s WALL (      48 calls)
     vloc_psi     :      0.78s CPU      0.80s WALL (      48 calls)
     add_vuspsi   :      0.04s CPU      0.04s WALL (      48 calls)

     General routines
     calbec       :      0.06s CPU      0.06s WALL (      63 calls)
     fft          :      1.77s CPU      2.00s WALL (     129 calls)
     ffts         :      0.05s CPU      0.06s WALL (      20 calls)
     fftw         :      0.53s CPU      0.55s WALL (     606 calls)
     interpolate  :      0.17s CPU      0.19s WALL (      10 calls)
 
     Parallel routines

     PAW routines
     PAW_pot      :      0.01s CPU      0.01s WALL (      10 calls)
 
     PWSCF        :     27.83s CPU     31.44s WALL

 
   This run was terminated on:   8:18:19  13Aug2025            

=------------------------------------------------------------------------------=
   JOB DONE.
=------------------------------------------------------------------------------=
