
     Program PWSCF v.6.8 starts on 13Aug2025 at 10:39:18 

     This program is part of the open-source Quantum ESPRESSO suite
     for quantum simulation of materials; please cite
         "P. Giannozzi et al., J. Phys.:Condens. Matter 21 395502 (2009);
         "P. Giannozzi et al., J. Phys.:Condens. Matter 29 465901 (2017);
         "P. Giannozzi et al., J. Chem. Phys. 152 154105 (2020);
          URL http://www.quantum-espresso.org", 
     in publications or presentations arising from this work. More details at
     http://www.quantum-espresso.org/quote

     Parallel version (MPI), running on    32 processors

     MPI processes distributed on     1 nodes
     R & G space division:  proc/nbgrp/npool/nimage =      32
     375293 MiB available memory on the printing compute node when the environment starts
 
     Reading input from pwscf.in

     Current dimensions of program PWSCF are:
     Max number of different atomic species (ntypx) = 10
     Max number of k-points (npk) =  40000
     Max angular momentum in pseudopotentials (lmaxx) =  4
     file O.pbesol-n-kjpaw_psl.0.1.UPF: wavefunction(s)  2P renormalized

     -------------------------------------------------
     Parameters for Dispersion (Grimme-D2) Correction:
     -------------------------------------------------
       atom      VdW radius       C_6     

        H          1.892          4.857
        O          2.536         24.284
        Si         3.243        320.200

     gamma-point specific algorithms are used

     Subspace diagonalization in iterative solution of the eigenvalue problem:
     one sub-group per band group will be used
     scalapack distributed-memory algorithm (size of sub-group:  5*  5 procs)

 
     Parallelization info
     --------------------
     sticks:   dense  smooth     PW     G-vecs:    dense   smooth      PW
     Min         372     185     45               134676    47598    5939
     Max         374     188     48               134738    47640    5984
     Sum       11959    5957   1483              4310687  1523803  190433
 
     Using Slab Decomposition
 


     bravais-lattice index     =            0
     lattice parameter (alat)  =      19.0023  a.u.
     unit-cell volume          =   24273.0715 (a.u.)^3
     number of atoms/cell      =            2
     number of atomic types    =            3
     number of electrons       =         2.00
     number of Kohn-Sham states=            5
     kinetic-energy cutoff     =      60.0000  Ry
     charge density cutoff     =     480.0000  Ry
     scf convergence threshold =      1.5E-08
     mixing beta               =       0.4000
     number of iterations used =            8  plain     mixing
     energy convergence thresh.=      7.7E-04
     force convergence thresh. =      1.0E-04
     Exchange-correlation= PBESOL
                           (   1   4  10   8   0   0   0)
     nstep                     =          500


     celldm(1)=  19.002262  celldm(2)=   0.000000  celldm(3)=   0.000000
     celldm(4)=   0.000000  celldm(5)=   0.000000  celldm(6)=   0.000000

     crystal axes: (cart. coord. in units of alat)
               a(1) = (   1.000000   0.000000   0.000000 )  
               a(2) = (   0.000000   0.866025   0.000000 )  
               a(3) = (   0.000000   0.000000   4.084870 )  

     reciprocal axes: (cart. coord. in units 2 pi/alat)
               b(1) = (  1.000000  0.000000  0.000000 )  
               b(2) = (  0.000000  1.154701  0.000000 )  
               b(3) = (  0.000000  0.000000  0.244806 )  


     PseudoPot. # 1 for H  read from file:
     ./pseudo/H.pbesol-rrkjus_psl.1.0.0.UPF
     MD5 check sum: 0324ed591cc0147dc3d88cad0d33f665
     Pseudo is Ultrasoft, Zval =  1.0
     Generated using "atomic" code by A. Dal Corso  v.6.0 svn rev. 13079
     Using radial grid of  929 points,  2 beta functions with: 
                l(1) =   0
                l(2) =   0
     Q(r) pseudized with 0 coefficients 


     PseudoPot. # 2 for O  read from file:
     ./pseudo/O.pbesol-n-kjpaw_psl.0.1.UPF
     MD5 check sum: 81d73d1479e654e5638b0319f0d6c2c7
     Pseudo is Projector augmented-wave + core cor, Zval =  6.0
     Generated using "atomic" code by A. Dal Corso  v.6.0 svn rev. 13079
     Shape of augmentation charge: BESSEL
     Using radial grid of 1095 points,  4 beta functions with: 
                l(1) =   0
                l(2) =   0
                l(3) =   1
                l(4) =   1
     Q(r) pseudized with 0 coefficients 


     PseudoPot. # 3 for Si read from file:
     ./pseudo/Si.pbesol-n-rrkjus_psl.1.0.0.UPF
     MD5 check sum: c4212819de858c94c3a1644338846ac9
     Pseudo is Ultrasoft + core correction, Zval =  4.0
     Generated using "atomic" code by A. Dal Corso  v.6.0 svn rev. 13079
     Using radial grid of 1141 points,  6 beta functions with: 
                l(1) =   0
                l(2) =   0
                l(3) =   1
                l(4) =   1
                l(5) =   2
                l(6) =   2
     Q(r) pseudized with 0 coefficients 


     atomic species   valence    mass     pseudopotential
        H              1.00     1.00794     H ( 1.00)
        O              6.00    15.99940     O ( 1.00)
        Si             4.00    28.08550     Si( 1.00)

     No symmetry found


                                    s                        frac. trans.

      isym =  1     identity                                     

 cryst.   s( 1) = (     1          0          0      )
                  (     0          1          0      )
                  (     0          0          1      )

 cart.    s( 1) = (  1.0000000  0.0000000  0.0000000 )
                  (  0.0000000  1.0000000  0.0000000 )
                  (  0.0000000  0.0000000  1.0000000 )


   Cartesian axes

     site n.     atom                  positions (alat units)
         1           H   tau(   1) = (   0.0000000   0.0000000   0.0000000  )
         2           H   tau(   2) = (   0.0000000   0.0000000   0.0795579  )

   Crystallographic axes

     site n.     atom                  positions (cryst. coord.)
         1           H   tau(   1) = (  0.0000000  0.0000000  0.0000000  )
         2           H   tau(   2) = (  0.0000000  0.0000000  0.0194762  )

     number of k points=     1  Marzari-Vanderbilt smearing, width (Ry)=  0.0147
                       cart. coord. in units 2pi/alat
        k(    1) = (   0.0000000   0.0000000   0.0000000), wk =   2.0000000

                       cryst. coord.
        k(    1) = (   0.0000000   0.0000000   0.0000000), wk =   2.0000000

     Dense  grid:  2155344 G-vectors     FFT dimensions: ( 135, 120, 576)

     Smooth grid:   761902 G-vectors     FFT dimensions: (  96,  81, 384)

     Dynamical RAM for                 wfc:       0.23 MB

     Dynamical RAM for     wfc (w. buffer):       0.23 MB

     Dynamical RAM for           str. fact:       3.08 MB

     Dynamical RAM for           local pot:       0.00 MB

     Dynamical RAM for          nlocal pot:       0.18 MB

     Dynamical RAM for                qrad:       5.27 MB

     Dynamical RAM for          rho,v,vnew:       9.76 MB

     Dynamical RAM for               rhoin:       3.25 MB

     Dynamical RAM for            rho*nmix:      16.45 MB

     Dynamical RAM for           G-vectors:       4.04 MB

     Dynamical RAM for          h,s,v(r/c):       0.00 MB

     Dynamical RAM for          <psi|beta>:       0.00 MB

     Dynamical RAM for                 psi:       0.45 MB

     Dynamical RAM for                hpsi:       0.45 MB

     Dynamical RAM for                spsi:       0.45 MB

     Dynamical RAM for      wfcinit/wfcrot:       0.45 MB

     Dynamical RAM for           addusdens:     193.23 MB

     Dynamical RAM for          addusforce:     195.81 MB

     Dynamical RAM for         addusstress:     206.59 MB

     Estimated static dynamical RAM per process >      41.05 MB

     Estimated max dynamical RAM per process >     264.08 MB

     Estimated total dynamical RAM >       8.25 GB

     Initial potential from superposition of free atoms

     starting charge    1.99998, renormalised to    2.00000

     negative rho (up, down):  2.474E-05 0.000E+00
     Starting wfcs are    2 randomized atomic wfcs +    3 random wfcs
     Checking if some PAW data can be deallocated... 
       PAW data deallocated on   32 nodes for type:  2

     total cpu time spent up to now is        4.7 secs

     Self-consistent Calculation

     iteration #  1     ecut=    60.00 Ry     beta= 0.40
     Davidson diagonalization with overlap

---- Real-time Memory Report at c_bands before calling an iterative solver
           435 MiB given to the printing process from OS
             0 MiB allocation reported by mallinfo(arena+hblkhd)
        372914 MiB available memory on the node where the printing process lives
------------------
     ethr =  1.00E-02,  avg # of iterations =  8.0

     negative rho (up, down):  3.949E-05 0.000E+00

     total cpu time spent up to now is        5.7 secs

     total energy              =      -2.30115557 Ry
     estimated scf accuracy    <       0.10134066 Ry

     iteration #  2     ecut=    60.00 Ry     beta= 0.40
     Davidson diagonalization with overlap

---- Real-time Memory Report at c_bands before calling an iterative solver
           495 MiB given to the printing process from OS
             0 MiB allocation reported by mallinfo(arena+hblkhd)
        371555 MiB available memory on the node where the printing process lives
------------------
     ethr =  5.07E-03,  avg # of iterations =  1.0

     negative rho (up, down):  5.806E-05 0.000E+00

     total cpu time spent up to now is        6.5 secs

     total energy              =      -2.28986663 Ry
     estimated scf accuracy    <       0.02473162 Ry

     iteration #  3     ecut=    60.00 Ry     beta= 0.40
     Davidson diagonalization with overlap

---- Real-time Memory Report at c_bands before calling an iterative solver
           505 MiB given to the printing process from OS
             0 MiB allocation reported by mallinfo(arena+hblkhd)
        371338 MiB available memory on the node where the printing process lives
------------------
     ethr =  1.24E-03,  avg # of iterations =  2.0

     negative rho (up, down):  5.479E-05 0.000E+00

     total cpu time spent up to now is        7.7 secs

     total energy              =      -2.29259203 Ry
     estimated scf accuracy    <       0.00005604 Ry

     iteration #  4     ecut=    60.00 Ry     beta= 0.40
     Davidson diagonalization with overlap

---- Real-time Memory Report at c_bands before calling an iterative solver
           506 MiB given to the printing process from OS
             0 MiB allocation reported by mallinfo(arena+hblkhd)
        370965 MiB available memory on the node where the printing process lives
------------------
     c_bands:  4 eigenvalues not converged
     ethr =  2.80E-06,  avg # of iterations = 20.0

     negative rho (up, down):  5.933E-05 0.000E+00

     total cpu time spent up to now is        8.7 secs

     total energy              =      -2.29259068 Ry
     estimated scf accuracy    <       0.00005106 Ry

     iteration #  5     ecut=    60.00 Ry     beta= 0.40
     Davidson diagonalization with overlap

---- Real-time Memory Report at c_bands before calling an iterative solver
           509 MiB given to the printing process from OS
             0 MiB allocation reported by mallinfo(arena+hblkhd)
        371284 MiB available memory on the node where the printing process lives
------------------
     c_bands:  4 eigenvalues not converged
     ethr =  2.55E-06,  avg # of iterations = 20.0

     negative rho (up, down):  6.208E-05 0.000E+00

     total cpu time spent up to now is        9.8 secs

     total energy              =      -2.29259627 Ry
     estimated scf accuracy    <       0.00000007 Ry

     iteration #  6     ecut=    60.00 Ry     beta= 0.40
     Davidson diagonalization with overlap

---- Real-time Memory Report at c_bands before calling an iterative solver
           511 MiB given to the printing process from OS
             0 MiB allocation reported by mallinfo(arena+hblkhd)
        371000 MiB available memory on the node where the printing process lives
------------------
     c_bands:  3 eigenvalues not converged
     ethr =  3.66E-09,  avg # of iterations = 20.0

     negative rho (up, down):  6.336E-05 0.000E+00

     total cpu time spent up to now is       11.2 secs

     total energy              =      -2.29259633 Ry
     estimated scf accuracy    <       0.00000002 Ry

     iteration #  7     ecut=    60.00 Ry     beta= 0.40
     Davidson diagonalization with overlap

---- Real-time Memory Report at c_bands before calling an iterative solver
           514 MiB given to the printing process from OS
             0 MiB allocation reported by mallinfo(arena+hblkhd)
        371233 MiB available memory on the node where the printing process lives
------------------
     ethr =  1.07E-09,  avg # of iterations =  4.0

     negative rho (up, down):  6.448E-05 0.000E+00

     total cpu time spent up to now is       12.1 secs

     total energy              =      -2.29259635 Ry
     estimated scf accuracy    <       0.00000002 Ry

     iteration #  8     ecut=    60.00 Ry     beta= 0.40
     Davidson diagonalization with overlap

---- Real-time Memory Report at c_bands before calling an iterative solver
           514 MiB given to the printing process from OS
             0 MiB allocation reported by mallinfo(arena+hblkhd)
        370981 MiB available memory on the node where the printing process lives
------------------
     ethr =  9.89E-10,  avg # of iterations =  2.0

     negative rho (up, down):  6.546E-05 0.000E+00

     total cpu time spent up to now is       12.9 secs

     End of self-consistent calculation

          k = 0.0000 0.0000 0.0000 ( 95217 PWs)   bands (ev):

    -9.9376  -0.1374  -0.0642  -0.0137   0.1236

     occupation numbers 
     1.0000   0.0000   0.0000   0.0000   0.0000

     the Fermi energy is    -4.9070 ev

!    total energy              =      -2.29259635 Ry
     estimated scf accuracy    <          7.0E-11 Ry
     smearing contrib. (-TS)   =      -0.00000000 Ry
     internal energy E=F+TS    =      -2.29259635 Ry

     The total energy is F=E-TS. E is the sum of the following terms:
     one-electron contribution =      -5.16986684 Ry
     hartree contribution      =       2.69626182 Ry
     xc contribution           =      -1.29985688 Ry
     ewald contribution        =       1.48086859 Ry
     Dispersion Correction     =      -0.00000304 Ry
     one-center paw contrib.   =       0.00000000 Ry
      -> PAW hartree energy AE =       0.00000000 Ry
      -> PAW hartree energy PS =       0.00000000 Ry
      -> PAW xc energy AE      =       0.00000000 Ry
      -> PAW xc energy PS      =       0.00000000 Ry
      -> total E_H with PAW    =       2.69626182 Ry
      -> total E_XC with PAW   =      -1.29985688 Ry

     convergence has been achieved in   8 iterations

     negative rho (up, down):  6.546E-05 0.000E+00

     Forces acting on atoms (cartesian axes, Ry/au):

     atom    1 type  1   force =     0.00000001    0.00000000    0.04727080
     atom    2 type  1   force =    -0.00000001   -0.00000000   -0.04727080
     The non-local contrib.  to forces
     atom    1 type  1   force =     0.00000001   -0.00000000    0.05780404
     atom    2 type  1   force =     0.00000000   -0.00000000   -0.05780416
     The ionic contribution  to forces
     atom    1 type  1   force =    -0.00000000    0.00000000   -0.87848125
     atom    2 type  1   force =    -0.00000000   -0.00000000    0.87848125
     The local contribution  to forces
     atom    1 type  1   force =     0.00000008   -0.00000007    0.86794881
     atom    2 type  1   force =     0.00000008   -0.00000007   -0.86795345
     The core correction contribution to forces
     atom    1 type  1   force =     0.00000000    0.00000000    0.00000000
     atom    2 type  1   force =     0.00000000    0.00000000    0.00000000
     The Hubbard contrib.    to forces
     atom    1 type  1   force =     0.00000000    0.00000000    0.00000000
     atom    2 type  1   force =     0.00000000    0.00000000    0.00000000
     The SCF correction term to forces
     atom    1 type  1   force =    -0.00000004    0.00000007    0.00000125
     atom    2 type  1   force =    -0.00000005    0.00000007    0.00000277

     Dispersion contribution to forces:
     atom    1 type  1   force =     0.00000000    0.00000000   -0.00000243
     atom    2 type  1   force =     0.00000000    0.00000000    0.00000243

     Total force =     0.066851     Total SCF correction =     0.000003

     Total Dispersion Force =     0.000003


     Computing stress (Cartesian axis) and pressure


     negative rho (up, down):  6.546E-05 0.000E+00
          total   stress  (Ry/bohr**3)                   (kbar)     P=       -0.14
  -0.00000000   0.00000000  -0.00000000           -0.00        0.00       -0.00
   0.00000000  -0.00000001  -0.00000000            0.00       -0.00       -0.00
  -0.00000000  -0.00000000  -0.00000295           -0.00       -0.00       -0.43

     kinetic stress (kbar)      9.10      0.00     -0.00
                                0.00      9.10     -0.00
                               -0.00     -0.00      5.89

     local   stress (kbar)    -17.71      0.00     -0.00
                                0.00    -18.69     -0.00
                               -0.00     -0.00     -4.67

     nonloc. stress (kbar)     -0.40     -0.00      0.00
                               -0.00     -0.40      0.00
                                0.00      0.00     -0.56

     hartree stress (kbar)      8.13     -0.00      0.00
                               -0.00      8.62      0.00
                                0.00      0.00     -0.41

     exc-cor stress (kbar)     -2.48     -0.00      0.00
                               -0.00     -2.48      0.00
                                0.00      0.00     -2.44

     corecor stress (kbar)      0.00      0.00      0.00
                                0.00      0.00      0.00
                                0.00      0.00      0.00

     ewald   stress (kbar)      3.36     -0.00     -0.00
                               -0.00      3.86     -0.00
                               -0.00     -0.00      1.75

     hubbard stress (kbar)      0.00      0.00      0.00
                                0.00      0.00      0.00
                                0.00      0.00      0.00

     DFT-D   stress (kbar)     -0.00      0.00      0.00
                                0.00     -0.00      0.00
                                0.00      0.00      0.00

     XDM     stress (kbar)      0.00      0.00      0.00
                                0.00      0.00      0.00
                                0.00      0.00      0.00

     dft-nl  stress (kbar)      0.00      0.00      0.00
                                0.00      0.00      0.00
                                0.00      0.00      0.00

     TS-vdW  stress (kbar)      0.00      0.00      0.00
                                0.00      0.00      0.00
                                0.00      0.00      0.00


                                0.00      0.00      0.00
                                0.00      0.00      0.00


                                0.00      0.00      0.00


     BFGS Geometry Optimization
     Energy error            =      0.0E+00 Ry
     Gradient error          =      4.7E-02 Ry/Bohr

     number of scf cycles    =   1
     number of bfgs steps    =   0

     energy             new  =      -2.2925963539 Ry

     new trust radius        =       0.0472707994 bohr
     new conv_thr            =       0.0000000154 Ry


ATOMIC_POSITIONS (angstrom)
H             0.0000000043        0.0000000021        0.0250146298
H            -0.0000000043       -0.0000000021        0.7749853702



     Writing output data file ./out/aiida.save/
     NEW-OLD atomic charge density approx. for the potential

     negative rho (up, down):  6.340E-05 0.000E+00

     total cpu time spent up to now is       24.2 secs

     Self-consistent Calculation

     iteration #  1     ecut=    60.00 Ry     beta= 0.40
     Davidson diagonalization with overlap

---- Real-time Memory Report at c_bands before calling an iterative solver
           602 MiB given to the printing process from OS
             0 MiB allocation reported by mallinfo(arena+hblkhd)
        370685 MiB available memory on the node where the printing process lives
------------------
     ethr =  1.00E-06,  avg # of iterations =  9.0

     negative rho (up, down):  6.440E-05 0.000E+00

     total cpu time spent up to now is       25.1 secs

     total energy              =      -2.29446609 Ry
     estimated scf accuracy    <       0.00068284 Ry

     iteration #  2     ecut=    60.00 Ry     beta= 0.40
     Davidson diagonalization with overlap

---- Real-time Memory Report at c_bands before calling an iterative solver
           602 MiB given to the printing process from OS
             0 MiB allocation reported by mallinfo(arena+hblkhd)
        370469 MiB available memory on the node where the printing process lives
------------------
     ethr =  3.41E-05,  avg # of iterations =  1.0

     negative rho (up, down):  6.774E-05 0.000E+00

     total cpu time spent up to now is       25.9 secs

     total energy              =      -2.29441832 Ry
     estimated scf accuracy    <       0.00015949 Ry

     iteration #  3     ecut=    60.00 Ry     beta= 0.40
     Davidson diagonalization with overlap

---- Real-time Memory Report at c_bands before calling an iterative solver
           602 MiB given to the printing process from OS
             0 MiB allocation reported by mallinfo(arena+hblkhd)
        370188 MiB available memory on the node where the printing process lives
------------------
     ethr =  7.97E-06,  avg # of iterations =  1.0

     negative rho (up, down):  6.812E-05 0.000E+00

     total cpu time spent up to now is       26.8 secs

     total energy              =      -2.29443555 Ry
     estimated scf accuracy    <       0.00000119 Ry

     iteration #  4     ecut=    60.00 Ry     beta= 0.40
     Davidson diagonalization with overlap

---- Real-time Memory Report at c_bands before calling an iterative solver
           602 MiB given to the printing process from OS
             0 MiB allocation reported by mallinfo(arena+hblkhd)
        370277 MiB available memory on the node where the printing process lives
------------------
     ethr =  5.97E-08,  avg # of iterations =  2.0

     negative rho (up, down):  6.759E-05 0.000E+00

     total cpu time spent up to now is       27.6 secs

     total energy              =      -2.29443566 Ry
     estimated scf accuracy    <       0.00000007 Ry

     iteration #  5     ecut=    60.00 Ry     beta= 0.40
     Davidson diagonalization with overlap

---- Real-time Memory Report at c_bands before calling an iterative solver
           602 MiB given to the printing process from OS
             0 MiB allocation reported by mallinfo(arena+hblkhd)
        370507 MiB available memory on the node where the printing process lives
------------------
     ethr =  3.50E-09,  avg # of iterations =  1.0

     negative rho (up, down):  6.815E-05 0.000E+00

     total cpu time spent up to now is       28.4 secs

     End of self-consistent calculation

          k = 0.0000 0.0000 0.0000 ( 95217 PWs)   bands (ev):

   -10.1669  -0.1365  -0.0329  -0.0140   0.1602

     occupation numbers 
     1.0000   0.0000   0.0000   0.0000   0.0000

     the Fermi energy is    -5.0033 ev

!    total energy              =      -2.29443568 Ry
     estimated scf accuracy    <          7.0E-10 Ry
     smearing contrib. (-TS)   =      -0.00000000 Ry
     internal energy E=F+TS    =      -2.29443568 Ry

     The total energy is F=E-TS. E is the sum of the following terms:
     one-electron contribution =      -5.29638965 Ry
     hartree contribution      =       2.76166919 Ry
     xc contribution           =      -1.32914305 Ry
     ewald contribution        =       1.56943069 Ry
     Dispersion Correction     =      -0.00000285 Ry
     one-center paw contrib.   =       0.00000000 Ry
      -> PAW hartree energy AE =       0.00000000 Ry
      -> PAW hartree energy PS =       0.00000000 Ry
      -> PAW xc energy AE      =       0.00000000 Ry
      -> PAW xc energy PS      =       0.00000000 Ry
      -> total E_H with PAW    =       2.76166919 Ry
      -> total E_XC with PAW   =      -1.32914305 Ry

     convergence has been achieved in   5 iterations

     negative rho (up, down):  6.815E-05 0.000E+00

     Forces acting on atoms (cartesian axes, Ry/au):

     atom    1 type  1   force =    -0.00000000   -0.00000000   -0.01143443
     atom    2 type  1   force =     0.00000000    0.00000000    0.01143443
     The non-local contrib.  to forces
     atom    1 type  1   force =     0.00000003    0.00000001    0.06633153
     atom    2 type  1   force =     0.00000003    0.00000001   -0.06633105
     The ionic contribution  to forces
     atom    1 type  1   force =     0.00000001    0.00000001   -0.99891822
     atom    2 type  1   force =    -0.00000001   -0.00000001    0.99891822
     The local contribution  to forces
     atom    1 type  1   force =     0.00000037    0.00000007    0.92116472
     atom    2 type  1   force =     0.00000039    0.00000008   -0.92115134
     The core correction contribution to forces
     atom    1 type  1   force =     0.00000000    0.00000000    0.00000000
     atom    2 type  1   force =     0.00000000    0.00000000    0.00000000
     The Hubbard contrib.    to forces
     atom    1 type  1   force =     0.00000000    0.00000000    0.00000000
     atom    2 type  1   force =     0.00000000    0.00000000    0.00000000
     The SCF correction term to forces
     atom    1 type  1   force =    -0.00000038   -0.00000007   -0.00000838
     atom    2 type  1   force =    -0.00000037   -0.00000006   -0.00000079

     Dispersion contribution to forces:
     atom    1 type  1   force =     0.00000000    0.00000000   -0.00000173
     atom    2 type  1   force =    -0.00000000   -0.00000000    0.00000173

     Total force =     0.016171     Total SCF correction =     0.000008

     Total Dispersion Force =     0.000002


     Computing stress (Cartesian axis) and pressure


     negative rho (up, down):  6.815E-05 0.000E+00
          total   stress  (Ry/bohr**3)                   (kbar)     P=        0.03
  -0.00000000  -0.00000000   0.00000000           -0.00       -0.00        0.00
  -0.00000000  -0.00000001   0.00000000           -0.00       -0.00        0.00
   0.00000000   0.00000000   0.00000066            0.00        0.00        0.10

     kinetic stress (kbar)      9.41     -0.00      0.00
                               -0.00      9.41      0.00
                                0.00      0.00      6.23

     local   stress (kbar)    -18.10     -0.00      0.00
                               -0.00    -19.08      0.00
                                0.00      0.00     -4.99

     nonloc. stress (kbar)     -0.42     -0.00      0.00
                               -0.00     -0.42      0.00
                                0.00      0.00     -0.61

     hartree stress (kbar)      8.29      0.00     -0.00
                                0.00      8.77     -0.00
                               -0.00     -0.00     -0.32

     exc-cor stress (kbar)     -2.54     -0.00     -0.00
                               -0.00     -2.54     -0.00
                               -0.00     -0.00     -2.50

     corecor stress (kbar)      0.00      0.00      0.00
                                0.00      0.00      0.00
                                0.00      0.00      0.00

     ewald   stress (kbar)      3.36      0.00     -0.00
                                0.00      3.86     -0.00
                               -0.00     -0.00      2.28

     hubbard stress (kbar)      0.00      0.00      0.00
                                0.00      0.00      0.00
                                0.00      0.00      0.00

     DFT-D   stress (kbar)     -0.00      0.00     -0.00
                                0.00     -0.00     -0.00
                               -0.00     -0.00      0.00

     XDM     stress (kbar)      0.00      0.00      0.00
                                0.00      0.00      0.00
                                0.00      0.00      0.00

     dft-nl  stress (kbar)      0.00      0.00      0.00
                                0.00      0.00      0.00
                                0.00      0.00      0.00

     TS-vdW  stress (kbar)      0.00      0.00      0.00
                                0.00      0.00      0.00
                                0.00      0.00      0.00


                                0.00      0.00      0.00
                                0.00      0.00      0.00


                                0.00      0.00      0.00

     Energy error            =      1.8E-03 Ry
     Gradient error          =      1.1E-02 Ry/Bohr

     number of scf cycles    =   2
     number of bfgs steps    =   1

     energy             old  =      -2.2925963539 Ry
     energy             new  =      -2.2944356786 Ry

     CASE: energy            _new < energy            _old

     new trust radius        =       0.0092072661 bohr
     new conv_thr            =       0.0000000004 Ry


ATOMIC_POSITIONS (angstrom)
H             0.0000000036        0.0000000014        0.0201423544
H            -0.0000000036       -0.0000000014        0.7798576456



     Writing output data file ./out/aiida.save/
     NEW-OLD atomic charge density approx. for the potential

     negative rho (up, down):  6.792E-05 0.000E+00

     total cpu time spent up to now is       39.1 secs

     Self-consistent Calculation

     iteration #  1     ecut=    60.00 Ry     beta= 0.40
     Davidson diagonalization with overlap

---- Real-time Memory Report at c_bands before calling an iterative solver
           624 MiB given to the printing process from OS
             0 MiB allocation reported by mallinfo(arena+hblkhd)
        370178 MiB available memory on the node where the printing process lives
------------------
     ethr =  1.00E-06,  avg # of iterations =  3.0

     negative rho (up, down):  6.777E-05 0.000E+00

     total cpu time spent up to now is       39.9 secs

     total energy              =      -2.29452720 Ry
     estimated scf accuracy    <       0.00002792 Ry

     iteration #  2     ecut=    60.00 Ry     beta= 0.40
     Davidson diagonalization with overlap

---- Real-time Memory Report at c_bands before calling an iterative solver
           624 MiB given to the printing process from OS
             0 MiB allocation reported by mallinfo(arena+hblkhd)
        370262 MiB available memory on the node where the printing process lives
------------------
     ethr =  1.40E-06,  avg # of iterations =  1.0

     negative rho (up, down):  6.794E-05 0.000E+00

     total cpu time spent up to now is       40.8 secs

     total energy              =      -2.29452535 Ry
     estimated scf accuracy    <       0.00000650 Ry

     iteration #  3     ecut=    60.00 Ry     beta= 0.40
     Davidson diagonalization with overlap

---- Real-time Memory Report at c_bands before calling an iterative solver
           624 MiB given to the printing process from OS
             0 MiB allocation reported by mallinfo(arena+hblkhd)
        370196 MiB available memory on the node where the printing process lives
------------------
     ethr =  3.25E-07,  avg # of iterations =  1.0

     negative rho (up, down):  6.798E-05 0.000E+00

     total cpu time spent up to now is       41.6 secs

     total energy              =      -2.29452603 Ry
     estimated scf accuracy    <       0.00000005 Ry

     iteration #  4     ecut=    60.00 Ry     beta= 0.40
     Davidson diagonalization with overlap

---- Real-time Memory Report at c_bands before calling an iterative solver
           624 MiB given to the printing process from OS
             0 MiB allocation reported by mallinfo(arena+hblkhd)
        370261 MiB available memory on the node where the printing process lives
------------------
     ethr =  2.69E-09,  avg # of iterations =  1.0

     negative rho (up, down):  6.792E-05 0.000E+00

     total cpu time spent up to now is       42.4 secs

     total energy              =      -2.29452603 Ry
     estimated scf accuracy    <          1.6E-09 Ry

     iteration #  5     ecut=    60.00 Ry     beta= 0.40
     Davidson diagonalization with overlap

---- Real-time Memory Report at c_bands before calling an iterative solver
           624 MiB given to the printing process from OS
             0 MiB allocation reported by mallinfo(arena+hblkhd)
        370493 MiB available memory on the node where the printing process lives
------------------
     ethr =  7.76E-11,  avg # of iterations =  2.0

     negative rho (up, down):  6.787E-05 0.000E+00

     total cpu time spent up to now is       43.2 secs

     End of self-consistent calculation

          k = 0.0000 0.0000 0.0000 ( 95217 PWs)   bands (ev):

   -10.1208  -0.1371  -0.0377  -0.0143   0.1531

     occupation numbers 
     1.0000   0.0000   0.0000   0.0000   0.0000

     the Fermi energy is    -4.9839 ev

!    total energy              =      -2.29452603 Ry
     estimated scf accuracy    <          1.6E-11 Ry
     smearing contrib. (-TS)   =      -0.00000000 Ry
     internal energy E=F+TS    =      -2.29452603 Ry

     The total energy is F=E-TS. E is the sum of the following terms:
     one-electron contribution =      -5.27112705 Ry
     hartree contribution      =       2.74860766 Ry
     xc contribution           =      -1.32327464 Ry
     ewald contribution        =       1.55127089 Ry
     Dispersion Correction     =      -0.00000288 Ry
     one-center paw contrib.   =       0.00000000 Ry
      -> PAW hartree energy AE =       0.00000000 Ry
      -> PAW hartree energy PS =       0.00000000 Ry
      -> PAW xc energy AE      =       0.00000000 Ry
      -> PAW xc energy PS      =       0.00000000 Ry
      -> total E_H with PAW    =       2.74860766 Ry
      -> total E_XC with PAW   =      -1.32327464 Ry

     convergence has been achieved in   5 iterations

     negative rho (up, down):  6.787E-05 0.000E+00

     Forces acting on atoms (cartesian axes, Ry/au):

     atom    1 type  1   force =     0.00000000    0.00000000    0.00149781
     atom    2 type  1   force =    -0.00000000   -0.00000000   -0.00149781
     The non-local contrib.  to forces
     atom    1 type  1   force =    -0.00000001   -0.00000000    0.06455137
     atom    2 type  1   force =    -0.00000001   -0.00000000   -0.06455143
     The ionic contribution  to forces
     atom    1 type  1   force =     0.00000001    0.00000000   -0.97357897
     atom    2 type  1   force =    -0.00000001   -0.00000000    0.97357897
     The local contribution  to forces
     atom    1 type  1   force =    -0.00000009   -0.00000002    0.91052609
     atom    2 type  1   force =    -0.00000008   -0.00000001   -0.91052765
     The core correction contribution to forces
     atom    1 type  1   force =     0.00000000    0.00000000    0.00000000
     atom    2 type  1   force =     0.00000000    0.00000000    0.00000000
     The Hubbard contrib.    to forces
     atom    1 type  1   force =     0.00000000    0.00000000    0.00000000
     atom    2 type  1   force =     0.00000000    0.00000000    0.00000000
     The SCF correction term to forces
     atom    1 type  1   force =     0.00000006    0.00000001    0.00000098
     atom    2 type  1   force =     0.00000006    0.00000001    0.00000023

     Dispersion contribution to forces:
     atom    1 type  1   force =     0.00000000    0.00000000   -0.00000186
     atom    2 type  1   force =    -0.00000000   -0.00000000    0.00000186

     Total force =     0.002118     Total SCF correction =     0.000001

     Total Dispersion Force =     0.000003


     Computing stress (Cartesian axis) and pressure


     negative rho (up, down):  6.787E-05 0.000E+00
          total   stress  (Ry/bohr**3)                   (kbar)     P=       -0.00
  -0.00000000  -0.00000000  -0.00000000           -0.00       -0.00       -0.00
  -0.00000000  -0.00000001  -0.00000000           -0.00       -0.00       -0.00
  -0.00000000  -0.00000000  -0.00000009           -0.00       -0.00       -0.01

     kinetic stress (kbar)      9.34     -0.00      0.00
                               -0.00      9.34      0.00
                                0.00      0.00      6.16

     local   stress (kbar)    -18.02      0.00      0.00
                                0.00    -19.01      0.00
                                0.00      0.00     -4.93

     nonloc. stress (kbar)     -0.41     -0.00      0.00
                               -0.00     -0.41      0.00
                                0.00      0.00     -0.60

     hartree stress (kbar)      8.26      0.00     -0.00
                                0.00      8.74     -0.00
                               -0.00     -0.00     -0.34

     exc-cor stress (kbar)     -2.53     -0.00     -0.00
                               -0.00     -2.53     -0.00
                               -0.00     -0.00     -2.49

     corecor stress (kbar)      0.00      0.00      0.00
                                0.00      0.00      0.00
                                0.00      0.00      0.00

     ewald   stress (kbar)      3.36      0.00     -0.00
                                0.00      3.86     -0.00
                               -0.00     -0.00      2.18

     hubbard stress (kbar)      0.00      0.00      0.00
                                0.00      0.00      0.00
                                0.00      0.00      0.00

     DFT-D   stress (kbar)     -0.00      0.00     -0.00
                                0.00     -0.00     -0.00
                               -0.00     -0.00      0.00

     XDM     stress (kbar)      0.00      0.00      0.00
                                0.00      0.00      0.00
                                0.00      0.00      0.00

     dft-nl  stress (kbar)      0.00      0.00      0.00
                                0.00      0.00      0.00
                                0.00      0.00      0.00

     TS-vdW  stress (kbar)      0.00      0.00      0.00
                                0.00      0.00      0.00
                                0.00      0.00      0.00


                                0.00      0.00      0.00
                                0.00      0.00      0.00


                                0.00      0.00      0.00

     Energy error            =      9.0E-05 Ry
     Gradient error          =      1.5E-03 Ry/Bohr

     number of scf cycles    =   3
     number of bfgs steps    =   2

     energy             old  =      -2.2944356786 Ry
     energy             new  =      -2.2945260288 Ry

     CASE: energy            _new < energy            _old

     new trust radius        =       0.0010663860 bohr
     new conv_thr            =       0.0000000002 Ry


ATOMIC_POSITIONS (angstrom)
H             0.0000000037        0.0000000014        0.0207066616
H            -0.0000000037       -0.0000000014        0.7792933384



     Writing output data file ./out/aiida.save/
     NEW-OLD atomic charge density approx. for the potential

     negative rho (up, down):  6.787E-05 0.000E+00

     total cpu time spent up to now is       53.9 secs

     Self-consistent Calculation

     iteration #  1     ecut=    60.00 Ry     beta= 0.40
     Davidson diagonalization with overlap

---- Real-time Memory Report at c_bands before calling an iterative solver
           636 MiB given to the printing process from OS
             0 MiB allocation reported by mallinfo(arena+hblkhd)
        370182 MiB available memory on the node where the printing process lives
------------------
     ethr =  1.00E-06,  avg # of iterations =  2.0

     Threshold (ethr) on eigenvalues was too large:
     Diagonalizing with lowered threshold

     Davidson diagonalization with overlap

---- Real-time Memory Report at c_bands before calling an iterative solver
           636 MiB given to the printing process from OS
             0 MiB allocation reported by mallinfo(arena+hblkhd)
        370164 MiB available memory on the node where the printing process lives
------------------
     ethr =  1.74E-08,  avg # of iterations =  1.0

     negative rho (up, down):  6.789E-05 0.000E+00

     total cpu time spent up to now is       55.1 secs

     total energy              =      -2.29452768 Ry
     estimated scf accuracy    <       0.00000037 Ry

     iteration #  2     ecut=    60.00 Ry     beta= 0.40
     Davidson diagonalization with overlap

---- Real-time Memory Report at c_bands before calling an iterative solver
           636 MiB given to the printing process from OS
             0 MiB allocation reported by mallinfo(arena+hblkhd)
        370253 MiB available memory on the node where the printing process lives
------------------
     ethr =  1.83E-08,  avg # of iterations =  1.0

     negative rho (up, down):  6.789E-05 0.000E+00

     total cpu time spent up to now is       56.0 secs

     total energy              =      -2.29452765 Ry
     estimated scf accuracy    <       0.00000009 Ry

     iteration #  3     ecut=    60.00 Ry     beta= 0.40
     Davidson diagonalization with overlap

---- Real-time Memory Report at c_bands before calling an iterative solver
           636 MiB given to the printing process from OS
             0 MiB allocation reported by mallinfo(arena+hblkhd)
        370470 MiB available memory on the node where the printing process lives
------------------
     ethr =  4.35E-09,  avg # of iterations =  1.0

     negative rho (up, down):  6.789E-05 0.000E+00

     total cpu time spent up to now is       56.8 secs

     total energy              =      -2.29452766 Ry
     estimated scf accuracy    <          7.2E-10 Ry

     iteration #  4     ecut=    60.00 Ry     beta= 0.40
     Davidson diagonalization with overlap

---- Real-time Memory Report at c_bands before calling an iterative solver
           636 MiB given to the printing process from OS
             0 MiB allocation reported by mallinfo(arena+hblkhd)
        370177 MiB available memory on the node where the printing process lives
------------------
     ethr =  3.61E-11,  avg # of iterations =  2.0

     negative rho (up, down):  6.789E-05 0.000E+00

     total cpu time spent up to now is       57.7 secs

     total energy              =      -2.29452766 Ry
     estimated scf accuracy    <          1.9E-10 Ry

     iteration #  5     ecut=    60.00 Ry     beta= 0.40
     Davidson diagonalization with overlap

---- Real-time Memory Report at c_bands before calling an iterative solver
           636 MiB given to the printing process from OS
             0 MiB allocation reported by mallinfo(arena+hblkhd)
        370252 MiB available memory on the node where the printing process lives
------------------
     ethr =  9.36E-12,  avg # of iterations =  1.0

     negative rho (up, down):  6.790E-05 0.000E+00

     total cpu time spent up to now is       58.5 secs

     End of self-consistent calculation

          k = 0.0000 0.0000 0.0000 ( 95217 PWs)   bands (ev):

   -10.1261  -0.1371  -0.0371  -0.0142   0.1539

     occupation numbers 
     1.0000   0.0000   0.0000   0.0000   0.0000

     the Fermi energy is    -4.9861 ev

!    total energy              =      -2.29452766 Ry
     estimated scf accuracy    <          4.8E-13 Ry
     smearing contrib. (-TS)   =      -0.00000000 Ry
     internal energy E=F+TS    =      -2.29452766 Ry

     The total energy is F=E-TS. E is the sum of the following terms:
     one-electron contribution =      -5.27403740 Ry
     hartree contribution      =       2.75011247 Ry
     xc contribution           =      -1.32395023 Ry
     ewald contribution        =       1.55335038 Ry
     Dispersion Correction     =      -0.00000288 Ry
     one-center paw contrib.   =       0.00000000 Ry
      -> PAW hartree energy AE =       0.00000000 Ry
      -> PAW hartree energy PS =       0.00000000 Ry
      -> PAW xc energy AE      =       0.00000000 Ry
      -> PAW xc energy PS      =       0.00000000 Ry
      -> total E_H with PAW    =       2.75011247 Ry
      -> total E_XC with PAW   =      -1.32395023 Ry

     convergence has been achieved in   5 iterations

     negative rho (up, down):  6.790E-05 0.000E+00

     Forces acting on atoms (cartesian axes, Ry/au):

     atom    1 type  1   force =    -0.00000000   -0.00000000    0.00004063
     atom    2 type  1   force =     0.00000000    0.00000000   -0.00004063
     The non-local contrib.  to forces
     atom    1 type  1   force =     0.00000000   -0.00000000    0.06475452
     atom    2 type  1   force =     0.00000000    0.00000000   -0.06475452
     The ionic contribution  to forces
     atom    1 type  1   force =     0.00000001    0.00000000   -0.97646377
     atom    2 type  1   force =    -0.00000001   -0.00000000    0.97646377
     The local contribution  to forces
     atom    1 type  1   force =     0.00000001   -0.00000000    0.91175161
     atom    2 type  1   force =     0.00000002    0.00000001   -0.91175161
     The core correction contribution to forces
     atom    1 type  1   force =     0.00000000    0.00000000    0.00000000
     atom    2 type  1   force =     0.00000000    0.00000000    0.00000000
     The Hubbard contrib.    to forces
     atom    1 type  1   force =     0.00000000    0.00000000    0.00000000
     atom    2 type  1   force =     0.00000000    0.00000000    0.00000000
     The SCF correction term to forces
     atom    1 type  1   force =    -0.00000002   -0.00000000    0.00000012
     atom    2 type  1   force =    -0.00000002   -0.00000000   -0.00000011

     Dispersion contribution to forces:
     atom    1 type  1   force =     0.00000000    0.00000000   -0.00000184
     atom    2 type  1   force =    -0.00000000   -0.00000000    0.00000184

     Total force =     0.000057     Total SCF correction =     0.000000

     Total Dispersion Force =     0.000003


     Computing stress (Cartesian axis) and pressure


     negative rho (up, down):  6.790E-05 0.000E+00
          total   stress  (Ry/bohr**3)                   (kbar)     P=       -0.00
  -0.00000000   0.00000000   0.00000000           -0.00        0.00        0.00
   0.00000000  -0.00000001   0.00000000            0.00       -0.00        0.00
   0.00000000   0.00000000  -0.00000001            0.00        0.00       -0.00

     kinetic stress (kbar)      9.35     -0.00      0.00
                               -0.00      9.35      0.00
                                0.00      0.00      6.17

     local   stress (kbar)    -18.03      0.00      0.00
                                0.00    -19.01      0.00
                                0.00      0.00     -4.93

     nonloc. stress (kbar)     -0.42      0.00      0.00
                                0.00     -0.42      0.00
                                0.00      0.00     -0.60

     hartree stress (kbar)      8.26     -0.00     -0.00
                               -0.00      8.74     -0.00
                               -0.00     -0.00     -0.34

     exc-cor stress (kbar)     -2.53      0.00     -0.00
                                0.00     -2.53     -0.00
                               -0.00     -0.00     -2.49

     corecor stress (kbar)      0.00      0.00      0.00
                                0.00      0.00      0.00
                                0.00      0.00      0.00

     ewald   stress (kbar)      3.36      0.00     -0.00
                                0.00      3.86     -0.00
                               -0.00     -0.00      2.19

     hubbard stress (kbar)      0.00      0.00      0.00
                                0.00      0.00      0.00
                                0.00      0.00      0.00

     DFT-D   stress (kbar)     -0.00      0.00     -0.00
                                0.00     -0.00     -0.00
                               -0.00     -0.00      0.00

     XDM     stress (kbar)      0.00      0.00      0.00
                                0.00      0.00      0.00
                                0.00      0.00      0.00

     dft-nl  stress (kbar)      0.00      0.00      0.00
                                0.00      0.00      0.00
                                0.00      0.00      0.00

     TS-vdW  stress (kbar)      0.00      0.00      0.00
                                0.00      0.00      0.00
                                0.00      0.00      0.00


                                0.00      0.00      0.00
                                0.00      0.00      0.00


                                0.00      0.00      0.00

     Energy error            =      1.6E-06 Ry
     Gradient error          =      4.1E-05 Ry/Bohr

     bfgs converged in   4 scf cycles and   3 bfgs steps
     (criteria: energy <  7.7E-04 Ry, force <  1.0E-04 Ry/Bohr)

     End of BFGS Geometry Optimization

     Final energy             =      -2.2945276614 Ry

     File ./out/aiida.bfgs deleted, as requested
Begin final coordinates

ATOMIC_POSITIONS (angstrom)
H             0.0000000037        0.0000000014        0.0207066616
H            -0.0000000037       -0.0000000014        0.7792933384
End final coordinates



     Writing output data file ./out/aiida.save/
 
     init_run     :      4.07s CPU      4.47s WALL (       1 calls)
     electrons    :     17.98s CPU     22.22s WALL (       4 calls)
     update_pot   :      8.78s CPU      8.89s WALL (       3 calls)
     forces       :      8.30s CPU      8.67s WALL (       4 calls)
     force_london :      0.00s CPU      0.00s WALL (       4 calls)
     stress       :     19.68s CPU     20.57s WALL (       4 calls)
     stres_london :      0.00s CPU      0.00s WALL (       4 calls)

     Called by init_run:
     wfcinit      :      0.03s CPU      0.04s WALL (       1 calls)
     wfcinit:atom :      0.00s CPU      0.00s WALL (       1 calls)
     wfcinit:wfcr :      0.03s CPU      0.04s WALL (       1 calls)
     potinit      :      1.12s CPU      1.18s WALL (       1 calls)
     hinit0       :      2.01s CPU      2.10s WALL (       1 calls)

     Called by electrons:
     c_bands      :      1.52s CPU      1.73s WALL (      24 calls)
     sum_band     :      6.88s CPU      8.53s WALL (      24 calls)
     v_of_rho     :      3.89s CPU      4.29s WALL (      27 calls)
     v_h          :      0.43s CPU      0.49s WALL (      27 calls)
     v_xc         :      4.50s CPU      4.91s WALL (      35 calls)
     newd         :      5.15s CPU      6.92s WALL (      27 calls)
     PAW_pot      :      0.01s CPU      0.01s WALL (      30 calls)
     mix_rho      :      0.79s CPU      0.88s WALL (      24 calls)
     energy_londo :      0.01s CPU      0.01s WALL (       4 calls)

     Called by c_bands:
     init_us_2    :      0.04s CPU      0.04s WALL (      52 calls)
     regterg      :      1.50s CPU      1.67s WALL (      24 calls)

     Called by sum_band:
     sum_band:wei :      0.00s CPU      0.00s WALL (      24 calls)
     sum_band:loo :      0.29s CPU      0.38s WALL (      24 calls)
     sum_band:buf :      0.00s CPU      0.00s WALL (      24 calls)
     sum_band:ini :      0.02s CPU      0.02s WALL (      24 calls)
     sum_band:cal :      0.06s CPU      0.10s WALL (      27 calls)
     sum_band:bec :      0.00s CPU      0.00s WALL (      27 calls)
     addusdens    :      5.95s CPU      7.46s WALL (      24 calls)
     addusd:skk   :      0.02s CPU      0.02s WALL (      72 calls)
     addusd:dgemm :      0.69s CPU      2.04s WALL (      72 calls)
     addusd:qvan2 :      4.82s CPU      4.89s WALL (      72 calls)

     Called by *egterg:
     rdiaghg      :      0.37s CPU      0.52s WALL (     127 calls)
     regterg:over :      0.06s CPU      0.06s WALL (     107 calls)
     regterg:upda :      0.02s CPU      0.03s WALL (     107 calls)
     regterg:last :      0.05s CPU      0.05s WALL (     101 calls)
     rdiaghg:chol :      0.02s CPU      0.02s WALL (     127 calls)
     rdiaghg:inve :      0.00s CPU      0.00s WALL (     127 calls)
     rdiaghg:para :      0.04s CPU      0.05s WALL (     254 calls)
     h_psi        :      0.98s CPU      1.00s WALL (     132 calls)
     s_psi        :      0.00s CPU      0.00s WALL (     132 calls)
     g_psi        :      0.00s CPU      0.00s WALL (     107 calls)

     Called by h_psi:
     h_psi:calbec :      0.02s CPU      0.02s WALL (     132 calls)
     vloc_psi     :      0.95s CPU      0.97s WALL (     132 calls)
     add_vuspsi   :      0.01s CPU      0.01s WALL (     132 calls)

     General routines
     calbec       :      0.18s CPU      0.28s WALL (     179 calls)
     fft          :      5.05s CPU      5.62s WALL (     373 calls)
     ffts         :      0.14s CPU      0.15s WALL (      51 calls)
     fftw         :      0.64s CPU      0.70s WALL (     670 calls)
     interpolate  :      0.43s CPU      0.49s WALL (      27 calls)
 
     Parallel routines

     PAW routines
     PAW_pot      :      0.01s CPU      0.01s WALL (      30 calls)
 
     PWSCF        :     59.71s CPU   1m 6.39s WALL

 
   This run was terminated on:  10:40:25  13Aug2025            

=------------------------------------------------------------------------------=
   JOB DONE.
=------------------------------------------------------------------------------=
