
     Program PWSCF v.6.8 starts on 18Jul2025 at 21: 3: 1 

     This program is part of the open-source Quantum ESPRESSO suite
     for quantum simulation of materials; please cite
         "P. Giannozzi et al., J. Phys.:Condens. Matter 21 395502 (2009);
         "P. Giannozzi et al., J. Phys.:Condens. Matter 29 465901 (2017);
         "P. Giannozzi et al., J. Chem. Phys. 152 154105 (2020);
          URL http://www.quantum-espresso.org", 
     in publications or presentations arising from this work. More details at
     http://www.quantum-espresso.org/quote

     Parallel version (MPI), running on    64 processors

     MPI processes distributed on     2 nodes
     R & G space division:  proc/nbgrp/npool/nimage =      64
     328790 MiB available memory on the printing compute node when the environment starts
 
     Reading input from pwscf.in

     Current dimensions of program PWSCF are:
     Max number of different atomic species (ntypx) = 10
     Max number of k-points (npk) =  40000
     Max angular momentum in pseudopotentials (lmaxx) =  4
     file O.pbesol-n-kjpaw_psl.0.1.UPF: wavefunction(s)  2P renormalized

     -------------------------------------------------
     Parameters for Dispersion (Grimme-D2) Correction:
     -------------------------------------------------
       atom      VdW radius       C_6     

        H          1.892          4.857
        O          2.536         24.284
        Si         3.243        320.200
        Cl         3.097        175.885

     gamma-point specific algorithms are used

     Subspace diagonalization in iterative solution of the eigenvalue problem:
     one sub-group per band group will be used
     scalapack distributed-memory algorithm (size of sub-group:  8*  8 procs)

 
     Parallelization info
     --------------------
     sticks:   dense  smooth     PW     G-vecs:    dense   smooth      PW
     Min         186      92     22                67334    23772    2942
     Max         188      94     24                67396    23854    3008
     Sum       11959    5957   1483              4310687  1523803  190433
 
     Using Slab Decomposition
 


     bravais-lattice index     =            0
     lattice parameter (alat)  =      19.0023  a.u.
     unit-cell volume          =   24273.0715 (a.u.)^3
     number of atoms/cell      =            5
     number of atomic types    =            4
     number of electrons       =        32.00
     number of Kohn-Sham states=           20
     kinetic-energy cutoff     =      60.0000  Ry
     charge density cutoff     =     480.0000  Ry
     scf convergence threshold =      1.5E-08
     mixing beta               =       0.4000
     number of iterations used =            8  plain     mixing
     energy convergence thresh.=      7.7E-04
     force convergence thresh. =      1.0E-04
     Exchange-correlation= SLA  PW   PSX  PSC
                           (   1   4  10   8   0   0   0)
     nstep                     =          100


     celldm(1)=  19.002262  celldm(2)=   0.000000  celldm(3)=   0.000000
     celldm(4)=   0.000000  celldm(5)=   0.000000  celldm(6)=   0.000000

     crystal axes: (cart. coord. in units of alat)
               a(1) = (   1.000000   0.000000   0.000000 )  
               a(2) = (   0.000000   0.866025   0.000000 )  
               a(3) = (   0.000000   0.000000   4.084870 )  

     reciprocal axes: (cart. coord. in units 2 pi/alat)
               b(1) = (  1.000000  0.000000  0.000000 )  
               b(2) = (  0.000000  1.154701  0.000000 )  
               b(3) = (  0.000000  0.000000  0.244806 )  


     PseudoPot. # 1 for H  read from file:
     ./pseudo/H.pbesol-rrkjus_psl.1.0.0.UPF
     MD5 check sum: 0324ed591cc0147dc3d88cad0d33f665
     Pseudo is Ultrasoft, Zval =  1.0
     Generated using "atomic" code by A. Dal Corso  v.6.0 svn rev. 13079
     Using radial grid of  929 points,  2 beta functions with: 
                l(1) =   0
                l(2) =   0
     Q(r) pseudized with 0 coefficients 


     PseudoPot. # 2 for O  read from file:
     ./pseudo/O.pbesol-n-kjpaw_psl.0.1.UPF
     MD5 check sum: 81d73d1479e654e5638b0319f0d6c2c7
     Pseudo is Projector augmented-wave + core cor, Zval =  6.0
     Generated using "atomic" code by A. Dal Corso  v.6.0 svn rev. 13079
     Shape of augmentation charge: BESSEL
     Using radial grid of 1095 points,  4 beta functions with: 
                l(1) =   0
                l(2) =   0
                l(3) =   1
                l(4) =   1
     Q(r) pseudized with 0 coefficients 


     PseudoPot. # 3 for Si read from file:
     ./pseudo/Si.pbesol-n-rrkjus_psl.1.0.0.UPF
     MD5 check sum: c4212819de858c94c3a1644338846ac9
     Pseudo is Ultrasoft + core correction, Zval =  4.0
     Generated using "atomic" code by A. Dal Corso  v.6.0 svn rev. 13079
     Using radial grid of 1141 points,  6 beta functions with: 
                l(1) =   0
                l(2) =   0
                l(3) =   1
                l(4) =   1
                l(5) =   2
                l(6) =   2
     Q(r) pseudized with 0 coefficients 


     PseudoPot. # 4 for Cl read from file:
     ./pseudo/cl_pbesol_v1.4.uspp.F.UPF
     MD5 check sum: ed6bbcf06f19043c0df9f6394706ff8f
     Pseudo is Ultrasoft + core correction, Zval =  7.0
     Generated by new atomic code, or converted to UPF format
     Using radial grid of  909 points,  6 beta functions with: 
                l(1) =   0
                l(2) =   0
                l(3) =   1
                l(4) =   1
                l(5) =   2
                l(6) =   2
     Q(r) pseudized with  8 coefficients,  rinner =    1.300   1.300   1.300
                                                       1.300   1.300

     atomic species   valence    mass     pseudopotential
        H              1.00     1.00794     H ( 1.00)
        O              6.00    15.99940     O ( 1.00)
        Si             4.00    28.08550     Si( 1.00)
        Cl             7.00    35.45300     Cl( 1.00)

     No symmetry found


                                    s                        frac. trans.

      isym =  1     identity                                     

 cryst.   s( 1) = (     1          0          0      )
                  (     0          1          0      )
                  (     0          0          1      )

 cart.    s( 1) = (  1.0000000  0.0000000  0.0000000 )
                  (  0.0000000  1.0000000  0.0000000 )
                  (  0.0000000  0.0000000  1.0000000 )


   Cartesian axes

     site n.     atom                  positions (alat units)
         1           Si  tau(   1) = (   0.4986135   0.4620019   2.2167578  )
         2           Cl  tau(   2) = (   0.5494739   0.5911692   2.2426599  )
         3           Cl  tau(   3) = (   0.5009376   0.4375110   2.0777015  )
         4           Cl  tau(   4) = (   0.3657617   0.4534067   2.2638541  )
         5           Cl  tau(   5) = (   0.5782818   0.3659228   2.2828148  )

   Crystallographic axes

     site n.     atom                  positions (cryst. coord.)
         1           Si  tau(   1) = (  0.4986135  0.5334739  0.5426752  )
         2           Cl  tau(   2) = (  0.5494739  0.6826235  0.5490162  )
         3           Cl  tau(   3) = (  0.5009376  0.5051943  0.5086334  )
         4           Cl  tau(   4) = (  0.3657617  0.5235490  0.5542047  )
         5           Cl  tau(   5) = (  0.5782818  0.4225313  0.5588464  )

     number of k points=     1  Marzari-Vanderbilt smearing, width (Ry)=  0.0147
                       cart. coord. in units 2pi/alat
        k(    1) = (   0.0000000   0.0000000   0.0000000), wk =   2.0000000

                       cryst. coord.
        k(    1) = (   0.0000000   0.0000000   0.0000000), wk =   2.0000000

     Dense  grid:  2155344 G-vectors     FFT dimensions: ( 135, 120, 576)

     Smooth grid:   761902 G-vectors     FFT dimensions: (  96,  81, 384)

     Dynamical RAM for                 wfc:       0.45 MB

     Dynamical RAM for     wfc (w. buffer):       0.45 MB

     Dynamical RAM for           str. fact:       2.06 MB

     Dynamical RAM for           local pot:       0.00 MB

     Dynamical RAM for          nlocal pot:       2.04 MB

     Dynamical RAM for                qrad:       7.03 MB

     Dynamical RAM for          rho,v,vnew:       4.88 MB

     Dynamical RAM for               rhoin:       1.63 MB

     Dynamical RAM for            rho*nmix:       8.22 MB

     Dynamical RAM for           G-vectors:       2.02 MB

     Dynamical RAM for          h,s,v(r/c):       0.00 MB

     Dynamical RAM for          <psi|beta>:       0.01 MB

     Dynamical RAM for                 psi:       0.91 MB

     Dynamical RAM for                hpsi:       0.91 MB

     Dynamical RAM for                spsi:       0.91 MB

     Dynamical RAM for      wfcinit/wfcrot:       0.92 MB

     Dynamical RAM for           addusdens:      97.62 MB

     Dynamical RAM for          addusforce:     100.98 MB

     Dynamical RAM for         addusstress:     103.28 MB

     Estimated static dynamical RAM per process >      28.24 MB

     Estimated max dynamical RAM per process >     139.73 MB

     Estimated total dynamical RAM >       8.73 GB

     Initial potential from superposition of free atoms

     starting charge   31.99943, renormalised to   32.00000

     negative rho (up, down):  4.913E-02 0.000E+00
     Starting wfcs are   20 randomized atomic wfcs
     Checking if some PAW data can be deallocated... 
       PAW data deallocated on   64 nodes for type:  2

     total cpu time spent up to now is        4.5 secs

     Self-consistent Calculation

     iteration #  1     ecut=    60.00 Ry     beta= 0.40
     Davidson diagonalization with overlap

---- Real-time Memory Report at c_bands before calling an iterative solver
           357 MiB given to the printing process from OS
             0 MiB allocation reported by mallinfo(arena+hblkhd)
        326535 MiB available memory on the node where the printing process lives
------------------
     ethr =  1.00E-02,  avg # of iterations =  5.0

     negative rho (up, down):  5.376E-02 0.000E+00

     total cpu time spent up to now is        5.3 secs

     total energy              =    -140.80123146 Ry
     estimated scf accuracy    <       1.80006001 Ry

     iteration #  2     ecut=    60.00 Ry     beta= 0.40
     Davidson diagonalization with overlap

---- Real-time Memory Report at c_bands before calling an iterative solver
           401 MiB given to the printing process from OS
             0 MiB allocation reported by mallinfo(arena+hblkhd)
        325646 MiB available memory on the node where the printing process lives
------------------
     ethr =  5.63E-03,  avg # of iterations =  2.0

     negative rho (up, down):  5.635E-02 0.000E+00

     total cpu time spent up to now is        6.0 secs

     total energy              =    -141.12758653 Ry
     estimated scf accuracy    <       0.05923832 Ry

     iteration #  3     ecut=    60.00 Ry     beta= 0.40
     Davidson diagonalization with overlap

---- Real-time Memory Report at c_bands before calling an iterative solver
           406 MiB given to the printing process from OS
             0 MiB allocation reported by mallinfo(arena+hblkhd)
        325528 MiB available memory on the node where the printing process lives
------------------
     c_bands:  2 eigenvalues not converged
     ethr =  1.85E-04,  avg # of iterations = 20.0

     negative rho (up, down):  5.911E-02 0.000E+00

     total cpu time spent up to now is        6.8 secs

     total energy              =    -141.12893997 Ry
     estimated scf accuracy    <       0.01721895 Ry

     iteration #  4     ecut=    60.00 Ry     beta= 0.40
     Davidson diagonalization with overlap

---- Real-time Memory Report at c_bands before calling an iterative solver
           408 MiB given to the printing process from OS
             0 MiB allocation reported by mallinfo(arena+hblkhd)
        325500 MiB available memory on the node where the printing process lives
------------------
     ethr =  5.38E-05,  avg # of iterations = 14.0

     negative rho (up, down):  5.896E-02 0.000E+00

     total cpu time spent up to now is        7.6 secs

     total energy              =    -141.13197550 Ry
     estimated scf accuracy    <       0.00304422 Ry

     iteration #  5     ecut=    60.00 Ry     beta= 0.40
     Davidson diagonalization with overlap

---- Real-time Memory Report at c_bands before calling an iterative solver
           409 MiB given to the printing process from OS
             0 MiB allocation reported by mallinfo(arena+hblkhd)
        325473 MiB available memory on the node where the printing process lives
------------------
     ethr =  9.51E-06,  avg # of iterations =  6.0

     negative rho (up, down):  5.869E-02 0.000E+00

     total cpu time spent up to now is        8.3 secs

     total energy              =    -141.13220817 Ry
     estimated scf accuracy    <       0.00035894 Ry

     iteration #  6     ecut=    60.00 Ry     beta= 0.40
     Davidson diagonalization with overlap

---- Real-time Memory Report at c_bands before calling an iterative solver
           410 MiB given to the printing process from OS
             0 MiB allocation reported by mallinfo(arena+hblkhd)
        325457 MiB available memory on the node where the printing process lives
------------------
     ethr =  1.12E-06,  avg # of iterations = 19.0

     negative rho (up, down):  5.872E-02 0.000E+00

     total cpu time spent up to now is        9.1 secs

     total energy              =    -141.13234769 Ry
     estimated scf accuracy    <       0.00096025 Ry

     iteration #  7     ecut=    60.00 Ry     beta= 0.40
     Davidson diagonalization with overlap

---- Real-time Memory Report at c_bands before calling an iterative solver
           413 MiB given to the printing process from OS
             0 MiB allocation reported by mallinfo(arena+hblkhd)
        325428 MiB available memory on the node where the printing process lives
------------------
     ethr =  1.12E-06,  avg # of iterations =  2.0

     negative rho (up, down):  5.866E-02 0.000E+00

     total cpu time spent up to now is        9.8 secs

     total energy              =    -141.13239424 Ry
     estimated scf accuracy    <       0.00008736 Ry

     iteration #  8     ecut=    60.00 Ry     beta= 0.40
     Davidson diagonalization with overlap

---- Real-time Memory Report at c_bands before calling an iterative solver
           413 MiB given to the printing process from OS
             0 MiB allocation reported by mallinfo(arena+hblkhd)
        325410 MiB available memory on the node where the printing process lives
------------------
     ethr =  2.73E-07,  avg # of iterations =  3.0

     negative rho (up, down):  5.859E-02 0.000E+00

     total cpu time spent up to now is       10.5 secs

     total energy              =    -141.13244625 Ry
     estimated scf accuracy    <       0.00007035 Ry

     iteration #  9     ecut=    60.00 Ry     beta= 0.40
     Davidson diagonalization with overlap

---- Real-time Memory Report at c_bands before calling an iterative solver
           413 MiB given to the printing process from OS
             0 MiB allocation reported by mallinfo(arena+hblkhd)
        325388 MiB available memory on the node where the printing process lives
------------------
     ethr =  2.20E-07,  avg # of iterations =  2.0

     negative rho (up, down):  5.856E-02 0.000E+00

     total cpu time spent up to now is       11.2 secs

     total energy              =    -141.13245087 Ry
     estimated scf accuracy    <       0.00000985 Ry

     iteration # 10     ecut=    60.00 Ry     beta= 0.40
     Davidson diagonalization with overlap

---- Real-time Memory Report at c_bands before calling an iterative solver
           414 MiB given to the printing process from OS
             0 MiB allocation reported by mallinfo(arena+hblkhd)
        325387 MiB available memory on the node where the printing process lives
------------------
     ethr =  3.08E-08,  avg # of iterations =  4.0

     negative rho (up, down):  5.853E-02 0.000E+00

     total cpu time spent up to now is       12.0 secs

     total energy              =    -141.13245288 Ry
     estimated scf accuracy    <       0.00000155 Ry

     iteration # 11     ecut=    60.00 Ry     beta= 0.40
     Davidson diagonalization with overlap

---- Real-time Memory Report at c_bands before calling an iterative solver
           414 MiB given to the printing process from OS
             0 MiB allocation reported by mallinfo(arena+hblkhd)
        325386 MiB available memory on the node where the printing process lives
------------------
     ethr =  4.85E-09,  avg # of iterations =  4.0

     negative rho (up, down):  5.851E-02 0.000E+00

     total cpu time spent up to now is       12.7 secs

     total energy              =    -141.13245345 Ry
     estimated scf accuracy    <       0.00000006 Ry

     iteration # 12     ecut=    60.00 Ry     beta= 0.40
     Davidson diagonalization with overlap

---- Real-time Memory Report at c_bands before calling an iterative solver
           414 MiB given to the printing process from OS
             0 MiB allocation reported by mallinfo(arena+hblkhd)
        325387 MiB available memory on the node where the printing process lives
------------------
     ethr =  1.94E-10,  avg # of iterations =  3.0

     negative rho (up, down):  5.847E-02 0.000E+00

     total cpu time spent up to now is       13.4 secs

     End of self-consistent calculation

          k = 0.0000 0.0000 0.0000 ( 95217 PWs)   bands (ev):

   -26.8713 -22.0239 -22.0218 -22.0193 -12.6400 -12.4797 -12.4797 -12.4791
   -11.4423 -11.4422  -8.4505  -8.4491  -8.4447  -6.4684  -6.4668  -6.4646
    -0.3654   0.0847   0.1414   0.3141

     occupation numbers 
     1.0000   1.0000   1.0000   1.0000   1.0000   1.0000   1.0000   1.0000
     1.0000   1.0000   1.0000   1.0000   1.0000   1.0000   1.0000   1.0000
     0.0000   0.0000   0.0000   0.0000

     the Fermi energy is    -5.4465 ev

!    total energy              =    -141.13245350 Ry
     estimated scf accuracy    <          2.0E-09 Ry
     smearing contrib. (-TS)   =       0.00000000 Ry
     internal energy E=F+TS    =    -141.13245350 Ry

     The total energy is F=E-TS. E is the sum of the following terms:
     one-electron contribution =    -716.46675835 Ry
     hartree contribution      =     361.79789266 Ry
     xc contribution           =     -46.36117721 Ry
     ewald contribution        =     259.89830431 Ry
     Dispersion Correction     =      -0.00071491 Ry
     one-center paw contrib.   =       0.00000000 Ry
      -> PAW hartree energy AE =       0.00000000 Ry
      -> PAW hartree energy PS =       0.00000000 Ry
      -> PAW xc energy AE      =       0.00000000 Ry
      -> PAW xc energy PS      =       0.00000000 Ry
      -> total E_H with PAW    =     361.79789266 Ry
      -> total E_XC with PAW   =     -46.36117721 Ry

     convergence has been achieved in  12 iterations

     negative rho (up, down):  5.847E-02 0.000E+00

     Forces acting on atoms (cartesian axes, Ry/au):

     atom    1 type  3   force =     0.00065933   -0.00004310    0.00041033
     atom    2 type  4   force =     0.87541377    2.22439762    0.44565726
     atom    3 type  4   force =     0.04001881   -0.42174657   -2.39457638
     atom    4 type  4   force =    -2.28787563   -0.14798837    0.81101536
     atom    5 type  4   force =     1.37178372   -1.65461958    1.13749343
     The non-local contrib.  to forces
     atom    1 type  3   force =    -0.00000215   -0.00020586   -0.00010759
     atom    2 type  4   force =     0.66438909    1.68577653    0.33856840
     atom    3 type  4   force =     0.03031027   -0.31964423   -1.81476119
     atom    4 type  4   force =    -1.73392199   -0.11223911    0.61467322
     atom    5 type  4   force =     1.04000495   -1.25365956    0.86221061
     The ionic contribution  to forces
     atom    1 type  3   force =    -0.01103379    0.00873328   -0.00976266
     atom    2 type  4   force =     7.05349523   17.36722164    3.96244557
     atom    3 type  4   force =     0.30581388   -3.29868559  -21.28889534
     atom    4 type  4   force =   -18.38898895   -1.15012721    7.20869878
     atom    5 type  4   force =    11.04071362  -12.92714212   10.12751366
     The local contribution  to forces
     atom    1 type  3   force =     0.01167765   -0.00858067    0.01025738
     atom    2 type  4   force =    -6.80740300  -16.73965389   -3.83748242
     atom    3 type  4   force =    -0.29450375    3.17971868   20.61327085
     atom    4 type  4   force =    17.74351713    1.10845877   -6.97990538
     atom    5 type  4   force =   -10.65403309   12.46003161   -9.80670598
     The core correction contribution to forces
     atom    1 type  3   force =     0.00001860    0.00001438    0.00002420
     atom    2 type  4   force =    -0.03517148   -0.08924302   -0.01792180
     atom    3 type  4   force =    -0.00160775    0.01692203    0.09607367
     atom    4 type  4   force =     0.09179209    0.00594224   -0.03254409
     atom    5 type  4   force =    -0.05506178    0.06637432   -0.04564959
     The Hubbard contrib.    to forces
     atom    1 type  3   force =     0.00000000    0.00000000    0.00000000
     atom    2 type  4   force =     0.00000000    0.00000000    0.00000000
     atom    3 type  4   force =     0.00000000    0.00000000    0.00000000
     atom    4 type  4   force =     0.00000000    0.00000000    0.00000000
     atom    5 type  4   force =     0.00000000    0.00000000    0.00000000
     The SCF correction term to forces
     atom    1 type  3   force =    -0.00000017   -0.00000085   -0.00000041
     atom    2 type  4   force =     0.00001477    0.00003289    0.00000447
     atom    3 type  4   force =     0.00000329   -0.00000681   -0.00002688
     atom    4 type  4   force =    -0.00003158   -0.00000364    0.00001374
     atom    5 type  4   force =     0.00001893   -0.00002554    0.00001457

     Dispersion contribution to forces:
     atom    1 type  3   force =     0.00000119   -0.00000173    0.00000057
     atom    2 type  4   force =     0.00009117    0.00026513    0.00004419
     atom    3 type  4   force =     0.00000488   -0.00004900   -0.00023633
     atom    4 type  4   force =    -0.00024033   -0.00001776    0.00008025
     atom    5 type  4   force =     0.00014309   -0.00019665    0.00011132

     Total force =     4.863522     Total SCF correction =     0.000067

     Total Dispersion Force =     0.000524


     Computing stress (Cartesian axis) and pressure


     negative rho (up, down):  5.847E-02 0.000E+00
          total   stress  (Ry/bohr**3)                   (kbar)     P=       52.73
   0.00035840  -0.00000000  -0.00000002           52.72       -0.00       -0.00
  -0.00000000   0.00035859  -0.00000000           -0.00       52.75       -0.00
  -0.00000002  -0.00000000   0.00035842           -0.00       -0.00       52.73

     kinetic stress (kbar)    230.92     -0.00      0.00
                               -0.00    230.98     -0.00
                                0.00     -0.00    230.91

     local   stress (kbar)  -3106.32      0.12     -0.78
                                0.12  -3334.08     -0.09
                               -0.78     -0.09   1737.00

     nonloc. stress (kbar)    201.72     -0.00     -0.00
                               -0.00    201.73     -0.00
                               -0.00     -0.00    201.71

     hartree stress (kbar)   1496.88     -0.06      0.38
                               -0.06   1607.12      0.05
                                0.38      0.05   -911.35

     exc-cor stress (kbar)     48.81     -0.00      0.00
                               -0.00     48.81     -0.00
                                0.00     -0.00     48.81

     corecor stress (kbar)   -116.85      0.00     -0.00
                                0.00   -116.85      0.00
                               -0.00      0.00   -116.85

     ewald   stress (kbar)   1297.56     -0.06      0.40
                               -0.06   1415.05      0.05
                                0.40      0.05  -1137.52

     hubbard stress (kbar)      0.00      0.00      0.00
                                0.00      0.00      0.00
                                0.00      0.00      0.00

     DFT-D   stress (kbar)      0.00      0.00     -0.00
                                0.00     -0.00     -0.00
                               -0.00     -0.00      0.01

     XDM     stress (kbar)      0.00      0.00      0.00
                                0.00      0.00      0.00
                                0.00      0.00      0.00

     dft-nl  stress (kbar)      0.00      0.00      0.00
                                0.00      0.00      0.00
                                0.00      0.00      0.00

     TS-vdW  stress (kbar)      0.00      0.00      0.00
                                0.00      0.00      0.00
                                0.00      0.00      0.00


                                0.00      0.00      0.00
                                0.00      0.00      0.00


                                0.00      0.00      0.00


     BFGS Geometry Optimization
     Energy error            =      0.0E+00 Ry
     Gradient error          =      2.4E+00 Ry/Bohr

     number of scf cycles    =   1
     number of bfgs steps    =   0

     energy             new  =    -141.1324534973 Ry

     new trust radius        =       0.5000000000 bohr
     new conv_thr            =       0.0000000154 Ry


ATOMIC_POSITIONS (angstrom)
Si            5.0139117355        4.6456853106       22.2907946443
Cl            5.6205151931        6.1865549046       22.5996975983
Cl            5.0415640545        4.3535338891       20.6319296122
Cl            3.4290186745        4.5431588361       22.8525686332
Cl            5.9642003424        3.4995370596       23.0787495120



     Writing output data file ./out/aiida.save/
     NEW-OLD atomic charge density approx. for the potential

     negative rho (up, down):  5.471E-02 0.000E+00

     total cpu time spent up to now is       21.1 secs

     Self-consistent Calculation

     iteration #  1     ecut=    60.00 Ry     beta= 0.40
     Davidson diagonalization with overlap

---- Real-time Memory Report at c_bands before calling an iterative solver
           476 MiB given to the printing process from OS
             0 MiB allocation reported by mallinfo(arena+hblkhd)
        324699 MiB available memory on the node where the printing process lives
------------------
     ethr =  1.00E-06,  avg # of iterations = 18.0

     negative rho (up, down):  5.627E-02 0.000E+00

     total cpu time spent up to now is       22.2 secs

     total energy              =    -143.83917476 Ry
     estimated scf accuracy    <       0.46578358 Ry

     iteration #  2     ecut=    60.00 Ry     beta= 0.40
     Davidson diagonalization with overlap

---- Real-time Memory Report at c_bands before calling an iterative solver
           476 MiB given to the printing process from OS
             0 MiB allocation reported by mallinfo(arena+hblkhd)
        324471 MiB available memory on the node where the printing process lives
------------------
     ethr =  1.46E-03,  avg # of iterations =  2.0

     negative rho (up, down):  5.679E-02 0.000E+00

     total cpu time spent up to now is       22.9 secs

     total energy              =    -143.93757770 Ry
     estimated scf accuracy    <       0.02497804 Ry

     iteration #  3     ecut=    60.00 Ry     beta= 0.40
     Davidson diagonalization with overlap

---- Real-time Memory Report at c_bands before calling an iterative solver
           476 MiB given to the printing process from OS
             0 MiB allocation reported by mallinfo(arena+hblkhd)
        324832 MiB available memory on the node where the printing process lives
------------------
     ethr =  7.81E-05,  avg # of iterations =  2.0

     negative rho (up, down):  5.800E-02 0.000E+00

     total cpu time spent up to now is       23.6 secs

     total energy              =    -143.93515197 Ry
     estimated scf accuracy    <       0.00804447 Ry

     iteration #  4     ecut=    60.00 Ry     beta= 0.40
     Davidson diagonalization with overlap

---- Real-time Memory Report at c_bands before calling an iterative solver
           476 MiB given to the printing process from OS
             0 MiB allocation reported by mallinfo(arena+hblkhd)
        324825 MiB available memory on the node where the printing process lives
------------------
     ethr =  2.51E-05,  avg # of iterations =  2.0

     negative rho (up, down):  5.752E-02 0.000E+00

     total cpu time spent up to now is       24.3 secs

     total energy              =    -143.93672640 Ry
     estimated scf accuracy    <       0.00259032 Ry

     iteration #  5     ecut=    60.00 Ry     beta= 0.40
     Davidson diagonalization with overlap

---- Real-time Memory Report at c_bands before calling an iterative solver
           476 MiB given to the printing process from OS
             0 MiB allocation reported by mallinfo(arena+hblkhd)
        324819 MiB available memory on the node where the printing process lives
------------------
     ethr =  8.09E-06,  avg # of iterations =  2.0

     negative rho (up, down):  5.747E-02 0.000E+00

     total cpu time spent up to now is       25.0 secs

     total energy              =    -143.93713136 Ry
     estimated scf accuracy    <       0.00011413 Ry

     iteration #  6     ecut=    60.00 Ry     beta= 0.40
     Davidson diagonalization with overlap

---- Real-time Memory Report at c_bands before calling an iterative solver
           476 MiB given to the printing process from OS
             0 MiB allocation reported by mallinfo(arena+hblkhd)
        324799 MiB available memory on the node where the printing process lives
------------------
     ethr =  3.57E-07,  avg # of iterations =  4.0

     negative rho (up, down):  5.736E-02 0.000E+00

     total cpu time spent up to now is       25.8 secs

     total energy              =    -143.93717106 Ry
     estimated scf accuracy    <       0.00003057 Ry

     iteration #  7     ecut=    60.00 Ry     beta= 0.40
     Davidson diagonalization with overlap

---- Real-time Memory Report at c_bands before calling an iterative solver
           476 MiB given to the printing process from OS
             0 MiB allocation reported by mallinfo(arena+hblkhd)
        324784 MiB available memory on the node where the printing process lives
------------------
     ethr =  9.55E-08,  avg # of iterations =  2.0

     negative rho (up, down):  5.727E-02 0.000E+00

     total cpu time spent up to now is       26.5 secs

     total energy              =    -143.93717512 Ry
     estimated scf accuracy    <       0.00000145 Ry

     iteration #  8     ecut=    60.00 Ry     beta= 0.40
     Davidson diagonalization with overlap

---- Real-time Memory Report at c_bands before calling an iterative solver
           476 MiB given to the printing process from OS
             0 MiB allocation reported by mallinfo(arena+hblkhd)
        324769 MiB available memory on the node where the printing process lives
------------------
     ethr =  4.55E-09,  avg # of iterations =  3.0

     negative rho (up, down):  5.722E-02 0.000E+00

     total cpu time spent up to now is       27.2 secs

     total energy              =    -143.93717583 Ry
     estimated scf accuracy    <       0.00000071 Ry

     iteration #  9     ecut=    60.00 Ry     beta= 0.40
     Davidson diagonalization with overlap

---- Real-time Memory Report at c_bands before calling an iterative solver
           476 MiB given to the printing process from OS
             0 MiB allocation reported by mallinfo(arena+hblkhd)
        324763 MiB available memory on the node where the printing process lives
------------------
     ethr =  2.22E-09,  avg # of iterations =  2.0

     negative rho (up, down):  5.720E-02 0.000E+00

     total cpu time spent up to now is       27.9 secs

     total energy              =    -143.93717606 Ry
     estimated scf accuracy    <       0.00000004 Ry

     iteration # 10     ecut=    60.00 Ry     beta= 0.40
     Davidson diagonalization with overlap

---- Real-time Memory Report at c_bands before calling an iterative solver
           476 MiB given to the printing process from OS
             0 MiB allocation reported by mallinfo(arena+hblkhd)
        324754 MiB available memory on the node where the printing process lives
------------------
     ethr =  1.27E-10,  avg # of iterations =  5.0

     negative rho (up, down):  5.718E-02 0.000E+00

     total cpu time spent up to now is       28.6 secs

     End of self-consistent calculation

          k = 0.0000 0.0000 0.0000 ( 95217 PWs)   bands (ev):

   -24.3163 -21.4861 -21.4848 -21.4836 -13.1524 -11.5454 -11.5450 -11.5438
    -9.8244  -9.8239  -8.8036  -8.8031  -8.7989  -7.3219  -7.3211  -7.3191
    -0.4423   0.1049   0.1479   0.3379

     occupation numbers 
     1.0000   1.0000   1.0000   1.0000   1.0000   1.0000   1.0000   1.0000
     1.0000   1.0000   1.0000   1.0000   1.0000   1.0000   1.0000   1.0000
     0.0000   0.0000   0.0000   0.0000

     the Fermi energy is    -4.8256 ev

!    total energy              =    -143.93717615 Ry
     estimated scf accuracy    <          4.6E-09 Ry
     smearing contrib. (-TS)   =       0.00000000 Ry
     internal energy E=F+TS    =    -143.93717615 Ry

     The total energy is F=E-TS. E is the sum of the following terms:
     one-electron contribution =    -656.91689354 Ry
     hartree contribution      =     331.50621545 Ry
     xc contribution           =     -44.72850800 Ry
     ewald contribution        =     226.20400212 Ry
     Dispersion Correction     =      -0.00199217 Ry
     one-center paw contrib.   =       0.00000000 Ry
      -> PAW hartree energy AE =       0.00000000 Ry
      -> PAW hartree energy PS =       0.00000000 Ry
      -> PAW xc energy AE      =       0.00000000 Ry
      -> PAW xc energy PS      =       0.00000000 Ry
      -> total E_H with PAW    =     331.50621545 Ry
      -> total E_XC with PAW   =     -44.72850800 Ry

     convergence has been achieved in  10 iterations

     negative rho (up, down):  5.718E-02 0.000E+00

     Forces acting on atoms (cartesian axes, Ry/au):

     atom    1 type  3   force =     0.00010719    0.00014942    0.00014565
     atom    2 type  4   force =     0.24285277    0.61761223    0.12350353
     atom    3 type  4   force =     0.01109728   -0.11710567   -0.66479768
     atom    4 type  4   force =    -0.63509467   -0.04107493    0.22510862
     atom    5 type  4   force =     0.38103742   -0.45958105    0.31603988
     The non-local contrib.  to forces
     atom    1 type  3   force =    -0.00002201   -0.00012924   -0.00001184
     atom    2 type  4   force =     0.18100341    0.45699554    0.09258105
     atom    3 type  4   force =     0.00823050   -0.08679341   -0.49257704
     atom    4 type  4   force =    -0.47050592   -0.03054291    0.16687479
     atom    5 type  4   force =     0.28257183   -0.34008848    0.23410914
     The ionic contribution  to forces
     atom    1 type  3   force =    -0.01847436    0.01449762   -0.01607501
     atom    2 type  4   force =     4.89365448   11.76772695    2.92461839
     atom    3 type  4   force =     0.19768360   -2.24275795  -15.74442152
     atom    4 type  4   force =   -12.72952104   -0.77488878    5.32982688
     atom    5 type  4   force =     7.65665732   -8.76457784    7.50605126
     The local contribution  to forces
     atom    1 type  3   force =     0.01859171   -0.01423518    0.01621772
     atom    2 type  4   force =    -4.81881937  -11.57427519   -2.88708464
     atom    3 type  4   force =    -0.19422615    2.20621735   15.53676165
     atom    4 type  4   force =    12.53110076    0.76217033   -5.25960977
     atom    5 type  4   force =    -7.53788893    8.62066363   -7.40729965
     The core correction contribution to forces
     atom    1 type  3   force =     0.00000833    0.00002046    0.00000328
     atom    2 type  4   force =    -0.01348352   -0.03414001   -0.00688196
     atom    3 type  4   force =    -0.00061378    0.00647670    0.03677131
     atom    4 type  4   force =     0.03512767    0.00227571   -0.01245519
     atom    5 type  4   force =    -0.02108293    0.02539670   -0.01747496
     The Hubbard contrib.    to forces
     atom    1 type  3   force =     0.00000000    0.00000000    0.00000000
     atom    2 type  4   force =     0.00000000    0.00000000    0.00000000
     atom    3 type  4   force =     0.00000000    0.00000000    0.00000000
     atom    4 type  4   force =     0.00000000    0.00000000    0.00000000
     atom    5 type  4   force =     0.00000000    0.00000000    0.00000000
     The SCF correction term to forces
     atom    1 type  3   force =     0.00000081   -0.00000112    0.00000720
     atom    2 type  4   force =     0.00004614    0.00011169    0.00004012
     atom    3 type  4   force =     0.00000072   -0.00002484   -0.00011909
     atom    4 type  4   force =    -0.00011563   -0.00000988    0.00005632
     atom    5 type  4   force =     0.00007316   -0.00008732    0.00007506

     Dispersion contribution to forces:
     atom    1 type  3   force =     0.00000207   -0.00000301    0.00000099
     atom    2 type  4   force =     0.00045099    0.00119336    0.00022726
     atom    3 type  4   force =     0.00002176   -0.00022341   -0.00121628
     atom    4 type  4   force =    -0.00118116   -0.00007930    0.00041230
     atom    5 type  4   force =     0.00070633   -0.00088765    0.00057573

     Total force =     1.350356     Total SCF correction =     0.000258

     Total Dispersion Force =     0.002530


     Computing stress (Cartesian axis) and pressure


     negative rho (up, down):  5.718E-02 0.000E+00
          total   stress  (Ry/bohr**3)                   (kbar)     P=       17.38
   0.00011803  -0.00000001   0.00000001           17.36       -0.00        0.00
  -0.00000001   0.00011828  -0.00000001           -0.00       17.40       -0.00
   0.00000001  -0.00000001   0.00011805            0.00       -0.00       17.37

     kinetic stress (kbar)    208.91     -0.00     -0.00
                               -0.00    208.97     -0.00
                               -0.00     -0.00    208.91

     local   stress (kbar)  -2969.09      0.05     -1.43
                                0.05  -3187.73     -0.30
                               -1.43     -0.30   1837.51

     nonloc. stress (kbar)    185.52     -0.00     -0.00
                               -0.00    185.53     -0.00
                               -0.00     -0.00    185.51

     hartree stress (kbar)   1431.00     -0.02      0.68
                               -0.02   1536.52      0.14
                                0.68      0.14   -958.46

     exc-cor stress (kbar)     50.44     -0.00      0.00
                               -0.00     50.44     -0.00
                                0.00     -0.00     50.44

     corecor stress (kbar)   -114.43      0.00     -0.00
                                0.00   -114.43      0.00
                               -0.00      0.00   -114.43

     ewald   stress (kbar)   1224.98     -0.03      0.75
                               -0.03   1338.07      0.16
                                0.75      0.16  -1192.16

     hubbard stress (kbar)      0.00      0.00      0.00
                                0.00      0.00      0.00
                                0.00      0.00      0.00

     DFT-D   stress (kbar)      0.03     -0.00     -0.00
                               -0.00      0.02     -0.00
                               -0.00     -0.00      0.03

     XDM     stress (kbar)      0.00      0.00      0.00
                                0.00      0.00      0.00
                                0.00      0.00      0.00

     dft-nl  stress (kbar)      0.00      0.00      0.00
                                0.00      0.00      0.00
                                0.00      0.00      0.00

     TS-vdW  stress (kbar)      0.00      0.00      0.00
                                0.00      0.00      0.00
                                0.00      0.00      0.00


                                0.00      0.00      0.00
                                0.00      0.00      0.00


                                0.00      0.00      0.00

     Energy error            =      2.8E+00 Ry
     Gradient error          =      6.6E-01 Ry/Bohr

     number of scf cycles    =   2
     number of bfgs steps    =   1

     energy             old  =    -141.1324534973 Ry
     energy             new  =    -143.9371761510 Ry

     CASE: energy            _new < energy            _old

     new trust radius        =       0.1926077283 bohr
     new conv_thr            =       0.0000000154 Ry


ATOMIC_POSITIONS (angstrom)
Si            5.0138837254        4.6458017364       22.2908350424
Cl            5.6569739538        6.2795846552       22.6181640242
Cl            5.0432274198        4.3358908952       20.5318304188
Cl            3.3334384885        4.5369802857       22.8864339502
Cl            6.0216864125        3.4302124276       23.1264765645



     Writing output data file ./out/aiida.save/
     NEW-OLD atomic charge density approx. for the potential

     negative rho (up, down):  5.843E-02 0.000E+00

     total cpu time spent up to now is       36.4 secs

     Self-consistent Calculation

     iteration #  1     ecut=    60.00 Ry     beta= 0.40
     Davidson diagonalization with overlap

---- Real-time Memory Report at c_bands before calling an iterative solver
           515 MiB given to the printing process from OS
             0 MiB allocation reported by mallinfo(arena+hblkhd)
        323998 MiB available memory on the node where the printing process lives
------------------
     ethr =  1.00E-06,  avg # of iterations = 15.0

     negative rho (up, down):  5.824E-02 0.000E+00

     total cpu time spent up to now is       37.4 secs

     total energy              =    -144.31746960 Ry
     estimated scf accuracy    <       0.05063464 Ry

     iteration #  2     ecut=    60.00 Ry     beta= 0.40
     Davidson diagonalization with overlap

---- Real-time Memory Report at c_bands before calling an iterative solver
           515 MiB given to the printing process from OS
             0 MiB allocation reported by mallinfo(arena+hblkhd)
        323992 MiB available memory on the node where the printing process lives
------------------
     ethr =  1.58E-04,  avg # of iterations =  2.0

     negative rho (up, down):  5.804E-02 0.000E+00

     total cpu time spent up to now is       38.1 secs

     total energy              =    -144.32932327 Ry
     estimated scf accuracy    <       0.00206107 Ry

     iteration #  3     ecut=    60.00 Ry     beta= 0.40
     Davidson diagonalization with overlap

---- Real-time Memory Report at c_bands before calling an iterative solver
           515 MiB given to the printing process from OS
             0 MiB allocation reported by mallinfo(arena+hblkhd)
        323993 MiB available memory on the node where the printing process lives
------------------
     ethr =  6.44E-06,  avg # of iterations =  2.0

     negative rho (up, down):  5.844E-02 0.000E+00

     total cpu time spent up to now is       38.7 secs

     total energy              =    -144.32904899 Ry
     estimated scf accuracy    <       0.00071083 Ry

     iteration #  4     ecut=    60.00 Ry     beta= 0.40
     Davidson diagonalization with overlap

---- Real-time Memory Report at c_bands before calling an iterative solver
           515 MiB given to the printing process from OS
             0 MiB allocation reported by mallinfo(arena+hblkhd)
        323992 MiB available memory on the node where the printing process lives
------------------
     ethr =  2.22E-06,  avg # of iterations =  2.0

     negative rho (up, down):  5.798E-02 0.000E+00

     total cpu time spent up to now is       39.4 secs

     total energy              =    -144.32924993 Ry
     estimated scf accuracy    <       0.00036883 Ry

     iteration #  5     ecut=    60.00 Ry     beta= 0.40
     Davidson diagonalization with overlap

---- Real-time Memory Report at c_bands before calling an iterative solver
           515 MiB given to the printing process from OS
             0 MiB allocation reported by mallinfo(arena+hblkhd)
        323992 MiB available memory on the node where the printing process lives
------------------
     ethr =  1.15E-06,  avg # of iterations =  1.0

     negative rho (up, down):  5.782E-02 0.000E+00

     total cpu time spent up to now is       40.1 secs

     total energy              =    -144.32918988 Ry
     estimated scf accuracy    <       0.00012345 Ry

     iteration #  6     ecut=    60.00 Ry     beta= 0.40
     Davidson diagonalization with overlap

---- Real-time Memory Report at c_bands before calling an iterative solver
           515 MiB given to the printing process from OS
             0 MiB allocation reported by mallinfo(arena+hblkhd)
        323992 MiB available memory on the node where the printing process lives
------------------
     ethr =  3.86E-07,  avg # of iterations =  3.0

     negative rho (up, down):  5.775E-02 0.000E+00

     total cpu time spent up to now is       40.8 secs

     total energy              =    -144.32925104 Ry
     estimated scf accuracy    <       0.00002573 Ry

     iteration #  7     ecut=    60.00 Ry     beta= 0.40
     Davidson diagonalization with overlap

---- Real-time Memory Report at c_bands before calling an iterative solver
           515 MiB given to the printing process from OS
             0 MiB allocation reported by mallinfo(arena+hblkhd)
        323992 MiB available memory on the node where the printing process lives
------------------
     ethr =  8.04E-08,  avg # of iterations =  1.0

     negative rho (up, down):  5.766E-02 0.000E+00

     total cpu time spent up to now is       41.5 secs

     total energy              =    -144.32924682 Ry
     estimated scf accuracy    <       0.00001963 Ry

     iteration #  8     ecut=    60.00 Ry     beta= 0.40
     Davidson diagonalization with overlap

---- Real-time Memory Report at c_bands before calling an iterative solver
           515 MiB given to the printing process from OS
             0 MiB allocation reported by mallinfo(arena+hblkhd)
        323992 MiB available memory on the node where the printing process lives
------------------
     ethr =  6.13E-08,  avg # of iterations =  1.0

     negative rho (up, down):  5.762E-02 0.000E+00

     total cpu time spent up to now is       42.2 secs

     total energy              =    -144.32924742 Ry
     estimated scf accuracy    <       0.00000904 Ry

     iteration #  9     ecut=    60.00 Ry     beta= 0.40
     Davidson diagonalization with overlap

---- Real-time Memory Report at c_bands before calling an iterative solver
           515 MiB given to the printing process from OS
             0 MiB allocation reported by mallinfo(arena+hblkhd)
        323992 MiB available memory on the node where the printing process lives
------------------
     ethr =  2.83E-08,  avg # of iterations =  1.0

     negative rho (up, down):  5.761E-02 0.000E+00

     total cpu time spent up to now is       42.9 secs

     total energy              =    -144.32924786 Ry
     estimated scf accuracy    <       0.00000839 Ry

     iteration # 10     ecut=    60.00 Ry     beta= 0.40
     Davidson diagonalization with overlap

---- Real-time Memory Report at c_bands before calling an iterative solver
           515 MiB given to the printing process from OS
             0 MiB allocation reported by mallinfo(arena+hblkhd)
        323992 MiB available memory on the node where the printing process lives
------------------
     ethr =  2.62E-08,  avg # of iterations =  1.0

     negative rho (up, down):  5.760E-02 0.000E+00

     total cpu time spent up to now is       43.5 secs

     total energy              =    -144.32924262 Ry
     estimated scf accuracy    <       0.00000852 Ry

     iteration # 11     ecut=    60.00 Ry     beta= 0.40
     Davidson diagonalization with overlap

---- Real-time Memory Report at c_bands before calling an iterative solver
           515 MiB given to the printing process from OS
             0 MiB allocation reported by mallinfo(arena+hblkhd)
        323992 MiB available memory on the node where the printing process lives
------------------
     ethr =  2.62E-08,  avg # of iterations =  2.0

     negative rho (up, down):  5.760E-02 0.000E+00

     total cpu time spent up to now is       44.2 secs

     total energy              =    -144.32924584 Ry
     estimated scf accuracy    <       0.00000081 Ry

     iteration # 12     ecut=    60.00 Ry     beta= 0.40
     Davidson diagonalization with overlap

---- Real-time Memory Report at c_bands before calling an iterative solver
           515 MiB given to the printing process from OS
             0 MiB allocation reported by mallinfo(arena+hblkhd)
        323992 MiB available memory on the node where the printing process lives
------------------
     ethr =  2.54E-09,  avg # of iterations =  1.0

     negative rho (up, down):  5.759E-02 0.000E+00

     total cpu time spent up to now is       44.9 secs

     total energy              =    -144.32924535 Ry
     estimated scf accuracy    <       0.00000103 Ry

     iteration # 13     ecut=    60.00 Ry     beta= 0.40
     Davidson diagonalization with overlap

---- Real-time Memory Report at c_bands before calling an iterative solver
           515 MiB given to the printing process from OS
             0 MiB allocation reported by mallinfo(arena+hblkhd)
        323999 MiB available memory on the node where the printing process lives
------------------
     ethr =  2.54E-09,  avg # of iterations =  2.0

     negative rho (up, down):  5.759E-02 0.000E+00

     total cpu time spent up to now is       45.6 secs

     total energy              =    -144.32924549 Ry
     estimated scf accuracy    <       0.00000003 Ry

     iteration # 14     ecut=    60.00 Ry     beta= 0.40
     Davidson diagonalization with overlap

---- Real-time Memory Report at c_bands before calling an iterative solver
           515 MiB given to the printing process from OS
             0 MiB allocation reported by mallinfo(arena+hblkhd)
        323992 MiB available memory on the node where the printing process lives
------------------
     ethr =  9.47E-11,  avg # of iterations =  5.0

     negative rho (up, down):  5.759E-02 0.000E+00

     total cpu time spent up to now is       46.3 secs

     total energy              =    -144.32924552 Ry
     estimated scf accuracy    <       0.00000002 Ry

     iteration # 15     ecut=    60.00 Ry     beta= 0.40
     Davidson diagonalization with overlap

---- Real-time Memory Report at c_bands before calling an iterative solver
           515 MiB given to the printing process from OS
             0 MiB allocation reported by mallinfo(arena+hblkhd)
        323992 MiB available memory on the node where the printing process lives
------------------
     ethr =  4.86E-11,  avg # of iterations =  1.0

     negative rho (up, down):  5.759E-02 0.000E+00

     total cpu time spent up to now is       47.0 secs

     End of self-consistent calculation

          k = 0.0000 0.0000 0.0000 ( 95217 PWs)   bands (ev):

   -23.5288 -21.2907 -21.2896 -21.2883 -13.2925 -11.3064 -11.3055 -11.3044
    -9.4598  -9.4591  -8.7837  -8.7833  -8.7788  -7.5288  -7.5281  -7.5263
    -0.4870   0.1055   0.1503   0.3406

     occupation numbers 
     1.0000   1.0000   1.0000   1.0000   1.0000   1.0000   1.0000   1.0000
     1.0000   1.0000   1.0000   1.0000   1.0000   1.0000   1.0000   1.0000
     0.0000   0.0000   0.0000   0.0000

     the Fermi energy is    -4.6268 ev

!    total energy              =    -144.32924551 Ry
     estimated scf accuracy    <       0.00000001 Ry
     smearing contrib. (-TS)   =       0.00000000 Ry
     internal energy E=F+TS    =    -144.32924551 Ry

     The total energy is F=E-TS. E is the sum of the following terms:
     one-electron contribution =    -637.91095786 Ry
     hartree contribution      =     321.88139914 Ry
     xc contribution           =     -44.27087388 Ry
     ewald contribution        =     215.97446829 Ry
     Dispersion Correction     =      -0.00328120 Ry
     one-center paw contrib.   =       0.00000000 Ry
      -> PAW hartree energy AE =       0.00000000 Ry
      -> PAW hartree energy PS =       0.00000000 Ry
      -> PAW xc energy AE      =       0.00000000 Ry
      -> PAW xc energy PS      =       0.00000000 Ry
      -> total E_H with PAW    =     321.88139914 Ry
      -> total E_XC with PAW   =     -44.27087388 Ry

     convergence has been achieved in  15 iterations

     negative rho (up, down):  5.759E-02 0.000E+00

     Forces acting on atoms (cartesian axes, Ry/au):

     atom    1 type  3   force =     0.00056846   -0.00047793    0.00022760
     atom    2 type  4   force =     0.13187578    0.33561828    0.06696035
     atom    3 type  4   force =     0.00605087   -0.06364324   -0.36098014
     atom    4 type  4   force =    -0.34513969   -0.02234945    0.12234479
     atom    5 type  4   force =     0.20664459   -0.24914766    0.17144740
     The non-local contrib.  to forces
     atom    1 type  3   force =     0.00047573   -0.00064026    0.00018719
     atom    2 type  4   force =     0.06981540    0.17392520    0.03608305
     atom    3 type  4   force =     0.00321105   -0.03318606   -0.18792074
     atom    4 type  4   force =    -0.17967226   -0.01177535    0.06387263
     atom    5 type  4   force =     0.10760789   -0.12897754    0.08897773
     The ionic contribution  to forces
     atom    1 type  3   force =    -0.02051643    0.01578679   -0.01829956
     atom    2 type  4   force =     4.30192569   10.22023745    2.64507551
     atom    3 type  4   force =     0.16691707   -1.95320173  -14.26371507
     atom    4 type  4   force =   -11.17695405   -0.67145915    4.82845063
     atom    5 type  4   force =     6.72862773   -7.61136334    6.80848850
     The local contribution  to forces
     atom    1 type  3   force =     0.02066452   -0.01572115    0.01834228
     atom    2 type  4   force =    -4.23253027  -10.04006734   -2.61047151
     atom    3 type  4   force =    -0.16375396    1.91924269   14.07068773
     atom    4 type  4   force =    10.99241051    0.65965073   -4.76324257
     atom    5 type  4   force =    -6.61816191    7.47747337   -6.71656856
     The core correction contribution to forces
     atom    1 type  3   force =    -0.00005266    0.00010074   -0.00001412
     atom    2 type  4   force =    -0.00815991   -0.02060026   -0.00417349
     atom    3 type  4   force =    -0.00037268    0.00391151    0.02219138
     atom    4 type  4   force =     0.02121171    0.00137795   -0.00752484
     atom    5 type  4   force =    -0.01270623    0.01529077   -0.01052729
     The Hubbard contrib.    to forces
     atom    1 type  3   force =     0.00000000    0.00000000    0.00000000
     atom    2 type  4   force =     0.00000000    0.00000000    0.00000000
     atom    3 type  4   force =     0.00000000    0.00000000    0.00000000
     atom    4 type  4   force =     0.00000000    0.00000000    0.00000000
     atom    5 type  4   force =     0.00000000    0.00000000    0.00000000
     The SCF correction term to forces
     atom    1 type  3   force =    -0.00000352    0.00000097    0.00001085
     atom    2 type  4   force =     0.00006661    0.00013785    0.00006256
     atom    3 type  4   force =     0.00001520   -0.00003578   -0.00016262
     atom    4 type  4   force =    -0.00014425   -0.00001067    0.00009112
     atom    5 type  4   force =     0.00008748   -0.00009049    0.00010047

     Dispersion contribution to forces:
     atom    1 type  3   force =     0.00000250   -0.00000364    0.00000120
     atom    2 type  4   force =     0.00075995    0.00198676    0.00038449
     atom    3 type  4   force =     0.00003588   -0.00037248   -0.00206057
     atom    4 type  4   force =    -0.00198965   -0.00013158    0.00069807
     atom    5 type  4   force =     0.00119133   -0.00147906    0.00097680

     Total force =     0.733259     Total SCF correction =     0.000333

     Total Dispersion Force =     0.004252


     Computing stress (Cartesian axis) and pressure


     negative rho (up, down):  5.759E-02 0.000E+00
          total   stress  (Ry/bohr**3)                   (kbar)     P=       10.01
   0.00006797   0.00000004  -0.00000003           10.00        0.01       -0.00
   0.00000004   0.00006822   0.00000002            0.01       10.04        0.00
  -0.00000003   0.00000002   0.00006796           -0.00        0.00       10.00

     kinetic stress (kbar)    203.36      0.00     -0.00
                                0.00    203.42     -0.00
                               -0.00     -0.00    203.36

     local   stress (kbar)  -2924.54     -0.04     -1.75
                               -0.04  -3139.45     -0.43
                               -1.75     -0.43   1866.35

     nonloc. stress (kbar)    182.15      0.00     -0.00
                                0.00    182.17      0.00
                               -0.00      0.00    182.15

     hartree stress (kbar)   1409.52      0.01      0.83
                                0.01   1513.10      0.19
                                0.83      0.19   -971.89

     exc-cor stress (kbar)     50.99      0.00     -0.00
                                0.00     50.99      0.00
                               -0.00      0.00     50.99

     corecor stress (kbar)   -113.90     -0.00      0.00
                               -0.00   -113.90     -0.00
                                0.00     -0.00   -113.90

     ewald   stress (kbar)   1202.35      0.03      0.92
                                0.03   1313.66      0.24
                                0.92      0.24  -1207.12

     hubbard stress (kbar)      0.00      0.00      0.00
                                0.00      0.00      0.00
                                0.00      0.00      0.00

     DFT-D   stress (kbar)      0.05     -0.00     -0.00
                               -0.00      0.05     -0.00
                               -0.00     -0.00      0.06

     XDM     stress (kbar)      0.00      0.00      0.00
                                0.00      0.00      0.00
                                0.00      0.00      0.00

     dft-nl  stress (kbar)      0.00      0.00      0.00
                                0.00      0.00      0.00
                                0.00      0.00      0.00

     TS-vdW  stress (kbar)      0.00      0.00      0.00
                                0.00      0.00      0.00
                                0.00      0.00      0.00


                                0.00      0.00      0.00
                                0.00      0.00      0.00


                                0.00      0.00      0.00

     Energy error            =      3.9E-01 Ry
     Gradient error          =      3.6E-01 Ry/Bohr

     number of scf cycles    =   3
     number of bfgs steps    =   2

     energy             old  =    -143.9371761510 Ry
     energy             new  =    -144.3292455097 Ry

     CASE: energy            _new < energy            _old

     new trust radius        =       0.2118685011 bohr
     new conv_thr            =       0.0000000154 Ry


ATOMIC_POSITIONS (angstrom)
Si            5.0144001010        4.6453303062       22.2910387596
Cl            5.6970994777        6.3822255934       22.6383745606
Cl            5.0450846015        4.3164181456       20.4216890924
Cl            3.2279606068        4.5301324879       22.9238173376
Cl            6.0846652129        3.3543634669       23.1788202498



     Writing output data file ./out/aiida.save/
     NEW-OLD atomic charge density approx. for the potential

     negative rho (up, down):  5.968E-02 0.000E+00

     total cpu time spent up to now is       54.7 secs

     Self-consistent Calculation

     iteration #  1     ecut=    60.00 Ry     beta= 0.40
     Davidson diagonalization with overlap

---- Real-time Memory Report at c_bands before calling an iterative solver
           537 MiB given to the printing process from OS
             0 MiB allocation reported by mallinfo(arena+hblkhd)
        323960 MiB available memory on the node where the printing process lives
------------------
     ethr =  1.00E-06,  avg # of iterations = 18.0

     negative rho (up, down):  5.911E-02 0.000E+00

     total cpu time spent up to now is       55.7 secs

     total energy              =    -144.52932491 Ry
     estimated scf accuracy    <       0.04723826 Ry

     iteration #  2     ecut=    60.00 Ry     beta= 0.40
     Davidson diagonalization with overlap

---- Real-time Memory Report at c_bands before calling an iterative solver
           537 MiB given to the printing process from OS
             0 MiB allocation reported by mallinfo(arena+hblkhd)
        323952 MiB available memory on the node where the printing process lives
------------------
     ethr =  1.48E-04,  avg # of iterations =  2.0

     negative rho (up, down):  5.874E-02 0.000E+00

     total cpu time spent up to now is       56.4 secs

     total energy              =    -144.54063797 Ry
     estimated scf accuracy    <       0.00206090 Ry

     iteration #  3     ecut=    60.00 Ry     beta= 0.40
     Davidson diagonalization with overlap

---- Real-time Memory Report at c_bands before calling an iterative solver
           537 MiB given to the printing process from OS
             0 MiB allocation reported by mallinfo(arena+hblkhd)
        323952 MiB available memory on the node where the printing process lives
------------------
     ethr =  6.44E-06,  avg # of iterations = 18.0

     negative rho (up, down):  5.888E-02 0.000E+00

     total cpu time spent up to now is       57.2 secs

     total energy              =    -144.54039058 Ry
     estimated scf accuracy    <       0.00066380 Ry

     iteration #  4     ecut=    60.00 Ry     beta= 0.40
     Davidson diagonalization with overlap

---- Real-time Memory Report at c_bands before calling an iterative solver
           537 MiB given to the printing process from OS
             0 MiB allocation reported by mallinfo(arena+hblkhd)
        323949 MiB available memory on the node where the printing process lives
------------------
     c_bands:  1 eigenvalues not converged
     ethr =  2.07E-06,  avg # of iterations = 20.0

     negative rho (up, down):  5.840E-02 0.000E+00

     total cpu time spent up to now is       58.1 secs

     total energy              =    -144.54059030 Ry
     estimated scf accuracy    <       0.00046164 Ry

     iteration #  5     ecut=    60.00 Ry     beta= 0.40
     Davidson diagonalization with overlap

---- Real-time Memory Report at c_bands before calling an iterative solver
           537 MiB given to the printing process from OS
             0 MiB allocation reported by mallinfo(arena+hblkhd)
        323950 MiB available memory on the node where the printing process lives
------------------
     ethr =  1.44E-06,  avg # of iterations =  2.0

     negative rho (up, down):  5.825E-02 0.000E+00

     total cpu time spent up to now is       58.8 secs

     total energy              =    -144.54054308 Ry
     estimated scf accuracy    <       0.00014258 Ry

     iteration #  6     ecut=    60.00 Ry     beta= 0.40
     Davidson diagonalization with overlap

---- Real-time Memory Report at c_bands before calling an iterative solver
           537 MiB given to the printing process from OS
             0 MiB allocation reported by mallinfo(arena+hblkhd)
        323950 MiB available memory on the node where the printing process lives
------------------
     ethr =  4.46E-07,  avg # of iterations =  2.0

     negative rho (up, down):  5.817E-02 0.000E+00

     total cpu time spent up to now is       59.5 secs

     total energy              =    -144.54059146 Ry
     estimated scf accuracy    <       0.00000151 Ry

     iteration #  7     ecut=    60.00 Ry     beta= 0.40
     Davidson diagonalization with overlap

---- Real-time Memory Report at c_bands before calling an iterative solver
           537 MiB given to the printing process from OS
             0 MiB allocation reported by mallinfo(arena+hblkhd)
        323949 MiB available memory on the node where the printing process lives
------------------
     ethr =  4.73E-09,  avg # of iterations =  6.0

     negative rho (up, down):  5.807E-02 0.000E+00

     total cpu time spent up to now is       60.2 secs

     total energy              =    -144.54059123 Ry
     estimated scf accuracy    <       0.00005115 Ry

     iteration #  8     ecut=    60.00 Ry     beta= 0.40
     Davidson diagonalization with overlap

---- Real-time Memory Report at c_bands before calling an iterative solver
           537 MiB given to the printing process from OS
             0 MiB allocation reported by mallinfo(arena+hblkhd)
        323947 MiB available memory on the node where the printing process lives
------------------
     ethr =  4.73E-09,  avg # of iterations =  3.0

     negative rho (up, down):  5.801E-02 0.000E+00

     total cpu time spent up to now is       60.9 secs

     total energy              =    -144.54058318 Ry
     estimated scf accuracy    <       0.00002111 Ry

     iteration #  9     ecut=    60.00 Ry     beta= 0.40
     Davidson diagonalization with overlap

---- Real-time Memory Report at c_bands before calling an iterative solver
           537 MiB given to the printing process from OS
             0 MiB allocation reported by mallinfo(arena+hblkhd)
        323950 MiB available memory on the node where the printing process lives
------------------
     ethr =  4.73E-09,  avg # of iterations =  3.0

     negative rho (up, down):  5.799E-02 0.000E+00

     total cpu time spent up to now is       61.6 secs

     total energy              =    -144.54058658 Ry
     estimated scf accuracy    <       0.00000025 Ry

     iteration # 10     ecut=    60.00 Ry     beta= 0.40
     Davidson diagonalization with overlap

---- Real-time Memory Report at c_bands before calling an iterative solver
           537 MiB given to the printing process from OS
             0 MiB allocation reported by mallinfo(arena+hblkhd)
        323947 MiB available memory on the node where the printing process lives
------------------
     ethr =  7.82E-10,  avg # of iterations =  3.0

     negative rho (up, down):  5.798E-02 0.000E+00

     total cpu time spent up to now is       62.3 secs

     total energy              =    -144.54058670 Ry
     estimated scf accuracy    <       0.00000015 Ry

     iteration # 11     ecut=    60.00 Ry     beta= 0.40
     Davidson diagonalization with overlap

---- Real-time Memory Report at c_bands before calling an iterative solver
           537 MiB given to the printing process from OS
             0 MiB allocation reported by mallinfo(arena+hblkhd)
        323947 MiB available memory on the node where the printing process lives
------------------
     ethr =  4.79E-10,  avg # of iterations =  2.0

     negative rho (up, down):  5.798E-02 0.000E+00

     total cpu time spent up to now is       63.0 secs

     End of self-consistent calculation

          k = 0.0000 0.0000 0.0000 ( 95217 PWs)   bands (ev):

   -22.7863 -21.0924 -21.0868 -21.0852 -13.4080 -11.0726 -11.0700 -11.0698
    -9.1483  -9.1472  -8.7203  -8.7193  -8.7143  -7.6949  -7.6932  -7.6920
    -0.6097   0.0948   0.1472   0.1914

     occupation numbers 
     1.0000   1.0000   1.0000   1.0000   1.0000   1.0000   1.0000   1.0000
     1.0000   1.0000   1.0000   1.0000   1.0000   1.0000   1.0000   1.0000
     0.0000   0.0000   0.0000   0.0000

     the Fermi energy is    -4.5530 ev

!    total energy              =    -144.54058676 Ry
     estimated scf accuracy    <          1.6E-09 Ry
     smearing contrib. (-TS)   =       0.00000000 Ry
     internal energy E=F+TS    =    -144.54058676 Ry

     The total energy is F=E-TS. E is the sum of the following terms:
     one-electron contribution =    -619.09285865 Ry
     hartree contribution      =     312.37991317 Ry
     xc contribution           =     -43.85202751 Ry
     ewald contribution        =     206.02983770 Ry
     Dispersion Correction     =      -0.00545146 Ry
     one-center paw contrib.   =       0.00000000 Ry
      -> PAW hartree energy AE =       0.00000000 Ry
      -> PAW hartree energy PS =       0.00000000 Ry
      -> PAW xc energy AE      =       0.00000000 Ry
      -> PAW xc energy PS      =       0.00000000 Ry
      -> total E_H with PAW    =     312.37991317 Ry
      -> total E_XC with PAW   =     -43.85202751 Ry

     convergence has been achieved in  11 iterations

     negative rho (up, down):  5.798E-02 0.000E+00

     Forces acting on atoms (cartesian axes, Ry/au):

     atom    1 type  3   force =    -0.00085310    0.00099727   -0.00020244
     atom    2 type  4   force =     0.05371669    0.13703783    0.02715706
     atom    3 type  4   force =     0.00249558   -0.02610820   -0.14786269
     atom    4 type  4   force =    -0.14079233   -0.00911212    0.04992988
     atom    5 type  4   force =     0.08543316   -0.10281477    0.07097819
     The non-local contrib.  to forces
     atom    1 type  3   force =    -0.00034613    0.00036070    0.00007542
     atom    2 type  4   force =    -0.01705803   -0.04780152   -0.00796604
     atom    3 type  4   force =    -0.00063560    0.00855766    0.04969185
     atom    4 type  4   force =     0.04814616    0.00286050   -0.01675049
     atom    5 type  4   force =    -0.02768091    0.03428956   -0.02334203
     The ionic contribution  to forces
     atom    1 type  3   force =    -0.02633803    0.02090254   -0.02173872
     atom    2 type  4   force =     3.75060687    8.77672984    2.38727600
     atom    3 type  4   force =     0.13598662   -1.68340836  -12.91635308
     atom    4 type  4   force =    -9.73431636   -0.57300870    4.37022019
     atom    5 type  4   force =     5.87406090   -6.54121532    6.18059561
     The local contribution  to forces
     atom    1 type  3   force =     0.02575591   -0.02021015    0.02145674
     atom    2 type  4   force =    -3.67707990   -8.58510257   -2.35072621
     atom    3 type  4   force =    -0.13273061    1.64744202   12.71134860
     atom    4 type  4   force =     9.53831274    0.56058053   -4.30102210
     atom    5 type  4   force =    -5.75665165    6.39902106   -6.08271239
     The core correction contribution to forces
     atom    1 type  3   force =     0.00007387   -0.00005005    0.00000386
     atom    2 type  4   force =    -0.00379498   -0.00949832   -0.00195637
     atom    3 type  4   force =    -0.00017366    0.00181395    0.01028604
     atom    4 type  4   force =     0.00979408    0.00063842   -0.00347791
     atom    5 type  4   force =    -0.00593112    0.00711659   -0.00490726
     The Hubbard contrib.    to forces
     atom    1 type  3   force =     0.00000000    0.00000000    0.00000000
     atom    2 type  4   force =     0.00000000    0.00000000    0.00000000
     atom    3 type  4   force =     0.00000000    0.00000000    0.00000000
     atom    4 type  4   force =     0.00000000    0.00000000    0.00000000
     atom    5 type  4   force =     0.00000000    0.00000000    0.00000000
     The SCF correction term to forces
     atom    1 type  3   force =    -0.00000014   -0.00000011    0.00000081
     atom    2 type  4   force =     0.00002238    0.00005068    0.00001376
     atom    3 type  4   force =     0.00000213   -0.00001280   -0.00006057
     atom    4 type  4   force =    -0.00005355   -0.00000513    0.00002222
     atom    5 type  4   force =     0.00003762   -0.00004553    0.00003232

     Dispersion contribution to forces:
     atom    1 type  3   force =     0.00000315   -0.00000456    0.00000150
     atom    2 type  4   force =     0.00102207    0.00266082    0.00051797
     atom    3 type  4   force =     0.00004842   -0.00049958   -0.00277348
     atom    4 type  4   force =    -0.00267369   -0.00017665    0.00094001
     atom    5 type  4   force =     0.00160005   -0.00198003    0.00131400

     Total force =     0.300435     Total SCF correction =     0.000123

     Total Dispersion Force =     0.005710


     Computing stress (Cartesian axis) and pressure


     negative rho (up, down):  5.798E-02 0.000E+00
          total   stress  (Ry/bohr**3)                   (kbar)     P=        4.37
   0.00002954  -0.00000007   0.00000006            4.35       -0.01        0.01
  -0.00000007   0.00002988  -0.00000005           -0.01        4.40       -0.01
   0.00000006  -0.00000005   0.00002960            0.01       -0.01        4.35

     kinetic stress (kbar)    198.56      0.00     -0.01
                                0.00    198.62      0.00
                               -0.01      0.00    198.56

     local   stress (kbar)  -2879.90     -0.13     -2.20
                               -0.13  -3090.60     -0.58
                               -2.20     -0.58   1892.68

     nonloc. stress (kbar)    179.66     -0.01      0.00
                               -0.01    179.68     -0.00
                                0.00     -0.00    179.66

     hartree stress (kbar)   1387.96      0.08      1.02
                                0.08   1489.31      0.28
                                1.02      0.28   -984.12

     exc-cor stress (kbar)     51.53     -0.00      0.00
                               -0.00     51.53     -0.00
                                0.00     -0.00     51.53

     corecor stress (kbar)   -113.48      0.00     -0.00
                                0.00   -113.48      0.00
                               -0.00      0.00   -113.48

     ewald   stress (kbar)   1179.93      0.05      1.19
                                0.05   1289.26      0.29
                                1.19      0.29  -1220.56

     hubbard stress (kbar)      0.00      0.00      0.00
                                0.00      0.00      0.00
                                0.00      0.00      0.00

     DFT-D   stress (kbar)      0.08     -0.00     -0.00
                               -0.00      0.07     -0.00
                               -0.00     -0.00      0.08

     XDM     stress (kbar)      0.00      0.00      0.00
                                0.00      0.00      0.00
                                0.00      0.00      0.00

     dft-nl  stress (kbar)      0.00      0.00      0.00
                                0.00      0.00      0.00
                                0.00      0.00      0.00

     TS-vdW  stress (kbar)      0.00      0.00      0.00
                                0.00      0.00      0.00
                                0.00      0.00      0.00


                                0.00      0.00      0.00
                                0.00      0.00      0.00


                                0.00      0.00      0.00

     Energy error            =      2.1E-01 Ry
     Gradient error          =      1.5E-01 Ry/Bohr

     number of scf cycles    =   4
     number of bfgs steps    =   3

     energy             old  =    -144.3292455097 Ry
     energy             new  =    -144.5405867579 Ry

     CASE: energy            _new < energy            _old

     new trust radius        =       0.1485775607 bohr
     new conv_thr            =       0.0000000154 Ry


ATOMIC_POSITIONS (angstrom)
Si            5.0137849737        4.6460726224       22.2909150944
Cl            5.7246694403        6.4530499758       22.6521543552
Cl            5.0463884668        4.3028723688       20.3452696825
Cl            3.1552984178        4.5254193975       22.9495898552
Cl            6.1290687014        3.3010556355       23.2158110127



     Writing output data file ./out/aiida.save/
     NEW-OLD atomic charge density approx. for the potential

     negative rho (up, down):  6.013E-02 0.000E+00

     total cpu time spent up to now is       70.8 secs

     Self-consistent Calculation

     iteration #  1     ecut=    60.00 Ry     beta= 0.40
     Davidson diagonalization with overlap

---- Real-time Memory Report at c_bands before calling an iterative solver
           561 MiB given to the printing process from OS
             0 MiB allocation reported by mallinfo(arena+hblkhd)
        323940 MiB available memory on the node where the printing process lives
------------------
     c_bands:  3 eigenvalues not converged
     ethr =  1.00E-06,  avg # of iterations = 20.0

     negative rho (up, down):  5.951E-02 0.000E+00

     total cpu time spent up to now is       74.2 secs

     total energy              =    -144.59342941 Ry
     estimated scf accuracy    <       0.01839501 Ry

     iteration #  2     ecut=    60.00 Ry     beta= 0.40
     Davidson diagonalization with overlap

---- Real-time Memory Report at c_bands before calling an iterative solver
           561 MiB given to the printing process from OS
             0 MiB allocation reported by mallinfo(arena+hblkhd)
        323928 MiB available memory on the node where the printing process lives
------------------
     ethr =  5.75E-05,  avg # of iterations =  8.0

     negative rho (up, down):  5.916E-02 0.000E+00

     total cpu time spent up to now is       74.9 secs

     total energy              =    -144.59792130 Ry
     estimated scf accuracy    <       0.00099880 Ry

     iteration #  3     ecut=    60.00 Ry     beta= 0.40
     Davidson diagonalization with overlap

---- Real-time Memory Report at c_bands before calling an iterative solver
           561 MiB given to the printing process from OS
             0 MiB allocation reported by mallinfo(arena+hblkhd)
        323928 MiB available memory on the node where the printing process lives
------------------
     c_bands:  2 eigenvalues not converged
     ethr =  3.12E-06,  avg # of iterations = 20.0

     negative rho (up, down):  5.906E-02 0.000E+00

     total cpu time spent up to now is       75.7 secs

     total energy              =    -144.59788751 Ry
     estimated scf accuracy    <       0.00022257 Ry

     iteration #  4     ecut=    60.00 Ry     beta= 0.40
     Davidson diagonalization with overlap

---- Real-time Memory Report at c_bands before calling an iterative solver
           561 MiB given to the printing process from OS
             0 MiB allocation reported by mallinfo(arena+hblkhd)
        323928 MiB available memory on the node where the printing process lives
------------------
     ethr =  6.96E-07,  avg # of iterations =  8.0

     negative rho (up, down):  5.877E-02 0.000E+00

     total cpu time spent up to now is       76.4 secs

     total energy              =    -144.59793054 Ry
     estimated scf accuracy    <       0.00009578 Ry

     iteration #  5     ecut=    60.00 Ry     beta= 0.40
     Davidson diagonalization with overlap

---- Real-time Memory Report at c_bands before calling an iterative solver
           561 MiB given to the printing process from OS
             0 MiB allocation reported by mallinfo(arena+hblkhd)
        323929 MiB available memory on the node where the printing process lives
------------------
     ethr =  2.99E-07,  avg # of iterations =  2.0

     negative rho (up, down):  5.868E-02 0.000E+00

     total cpu time spent up to now is       77.1 secs

     total energy              =    -144.59793994 Ry
     estimated scf accuracy    <       0.00000664 Ry

     iteration #  6     ecut=    60.00 Ry     beta= 0.40
     Davidson diagonalization with overlap

---- Real-time Memory Report at c_bands before calling an iterative solver
           561 MiB given to the printing process from OS
             0 MiB allocation reported by mallinfo(arena+hblkhd)
        323929 MiB available memory on the node where the printing process lives
------------------
     ethr =  2.08E-08,  avg # of iterations =  4.0

     negative rho (up, down):  5.857E-02 0.000E+00

     total cpu time spent up to now is       77.8 secs

     total energy              =    -144.59794329 Ry
     estimated scf accuracy    <       0.00000130 Ry

     iteration #  7     ecut=    60.00 Ry     beta= 0.40
     Davidson diagonalization with overlap

---- Real-time Memory Report at c_bands before calling an iterative solver
           561 MiB given to the printing process from OS
             0 MiB allocation reported by mallinfo(arena+hblkhd)
        323928 MiB available memory on the node where the printing process lives
------------------
     ethr =  4.07E-09,  avg # of iterations =  1.0

     negative rho (up, down):  5.850E-02 0.000E+00

     total cpu time spent up to now is       78.5 secs

     total energy              =    -144.59794284 Ry
     estimated scf accuracy    <       0.00000099 Ry

     iteration #  8     ecut=    60.00 Ry     beta= 0.40
     Davidson diagonalization with overlap

---- Real-time Memory Report at c_bands before calling an iterative solver
           561 MiB given to the printing process from OS
             0 MiB allocation reported by mallinfo(arena+hblkhd)
        323928 MiB available memory on the node where the printing process lives
------------------
     ethr =  3.10E-09,  avg # of iterations =  2.0

     negative rho (up, down):  5.845E-02 0.000E+00

     total cpu time spent up to now is       79.2 secs

     End of self-consistent calculation

          k = 0.0000 0.0000 0.0000 ( 95217 PWs)   bands (ev):

   -22.3446 -20.9625 -20.9606 -20.9568 -13.4653 -10.9187 -10.9162 -10.9138
    -8.9725  -8.9708  -8.6626  -8.6618  -8.6558  -7.7782  -7.7771  -7.7753
    -1.0738  -0.2929  -0.1435  -0.1186

     occupation numbers 
     1.0000   1.0000   1.0000   1.0000   1.0000   1.0000   1.0000   1.0000
     1.0000   1.0000   1.0000   1.0000   1.0000   1.0000   1.0000   1.0000
     0.0000   0.0000   0.0000   0.0000

     the Fermi energy is    -4.6751 ev

!    total energy              =    -144.59794317 Ry
     estimated scf accuracy    <       0.00000001 Ry
     smearing contrib. (-TS)   =       0.00000000 Ry
     internal energy E=F+TS    =    -144.59794317 Ry

     The total energy is F=E-TS. E is the sum of the following terms:
     one-electron contribution =    -607.18599447 Ry
     hartree contribution      =     306.38311312 Ry
     xc contribution           =     -43.60532232 Ry
     ewald contribution        =     199.81730866 Ry
     Dispersion Correction     =      -0.00704817 Ry
     one-center paw contrib.   =       0.00000000 Ry
      -> PAW hartree energy AE =       0.00000000 Ry
      -> PAW hartree energy PS =       0.00000000 Ry
      -> PAW xc energy AE      =       0.00000000 Ry
      -> PAW xc energy PS      =       0.00000000 Ry
      -> total E_H with PAW    =     306.38311312 Ry
      -> total E_XC with PAW   =     -43.60532232 Ry

     convergence has been achieved in   8 iterations

     negative rho (up, down):  5.845E-02 0.000E+00

     Forces acting on atoms (cartesian axes, Ry/au):

     atom    1 type  3   force =     0.00068963   -0.00079624    0.00017240
     atom    2 type  4   force =     0.01818212    0.04661031    0.00906564
     atom    3 type  4   force =     0.00088850   -0.00889196   -0.04992438
     atom    4 type  4   force =    -0.04804883   -0.00313355    0.01708461
     atom    5 type  4   force =     0.02828858   -0.03378856    0.02360173
     The non-local contrib.  to forces
     atom    1 type  3   force =     0.00104091   -0.00116311    0.00050792
     atom    2 type  4   force =    -0.05934592   -0.15546258   -0.02929262
     atom    3 type  4   force =    -0.00266732    0.02914788    0.16597255
     atom    4 type  4   force =     0.15834159    0.01010256   -0.05583544
     atom    5 type  4   force =    -0.09556363    0.11612854   -0.07969847
     The ionic contribution  to forces
     atom    1 type  3   force =    -0.02605210    0.01856516   -0.02352414
     atom    2 type  4   force =     3.42414570    7.90864574    2.23491390
     atom    3 type  4   force =     0.11945509   -1.52467070  -12.12106471
     atom    4 type  4   force =    -8.87287987   -0.51687693    4.10309545
     atom    5 type  4   force =     5.35533119   -5.88566327    5.80657950
     The local contribution  to forces
     atom    1 type  3   force =     0.02586181   -0.01840296    0.02327940
     atom    2 type  4   force =    -3.34576494   -7.70488589   -2.19605973
     atom    3 type  4   force =    -0.11581311    1.48622652   11.90314643
     atom    4 type  4   force =     8.66460698    0.50345057   -4.02940626
     atom    5 type  4   force =    -5.23042892    5.73459571   -5.70238005
     The core correction contribution to forces
     atom    1 type  3   force =    -0.00014146    0.00018626   -0.00006560
     atom    2 type  4   force =    -0.00157082   -0.00383038   -0.00082841
     atom    3 type  4   force =    -0.00007220    0.00073497    0.00415086
     atom    4 type  4   force =     0.00398705    0.00026371   -0.00142084
     atom    5 type  4   force =    -0.00234283    0.00278859   -0.00192764
     The Hubbard contrib.    to forces
     atom    1 type  3   force =     0.00000000    0.00000000    0.00000000
     atom    2 type  4   force =     0.00000000    0.00000000    0.00000000
     atom    3 type  4   force =     0.00000000    0.00000000    0.00000000
     atom    4 type  4   force =     0.00000000    0.00000000    0.00000000
     atom    5 type  4   force =     0.00000000    0.00000000    0.00000000
     The SCF correction term to forces
     atom    1 type  3   force =    -0.00002587    0.00002379   -0.00003048
     atom    2 type  4   force =    -0.00014459   -0.00010613   -0.00010750
     atom    3 type  4   force =    -0.00005879    0.00009301    0.00018811
     atom    4 type  4   force =     0.00013661    0.00007771   -0.00013980
     atom    5 type  4   force =    -0.00004897    0.00003312   -0.00007057

     Dispersion contribution to forces:
     atom    1 type  3   force =     0.00000344   -0.00000500    0.00000167
     atom    2 type  4   force =     0.00085982    0.00224992    0.00043636
     atom    3 type  4   force =     0.00004196   -0.00042326   -0.00232125
     atom    4 type  4   force =    -0.00224407   -0.00015079    0.00078787
     atom    5 type  4   force =     0.00133886   -0.00167088    0.00109534

     Total force =     0.101332     Total SCF correction =     0.000382

     Total Dispersion Force =     0.004798


     Computing stress (Cartesian axis) and pressure


     negative rho (up, down):  5.845E-02 0.000E+00
          total   stress  (Ry/bohr**3)                   (kbar)     P=        1.54
   0.00001041   0.00000008  -0.00000005            1.53        0.01       -0.01
   0.00000008   0.00001068   0.00000006            0.01        1.57        0.01
  -0.00000005   0.00000006   0.00001039           -0.01        0.01        1.53

     kinetic stress (kbar)    195.89     -0.00     -0.00
                               -0.00    195.95      0.00
                               -0.00      0.00    195.88

     local   stress (kbar)  -2851.31     -0.36     -2.48
                               -0.36  -3059.00     -0.80
                               -2.48     -0.80   1907.93

     nonloc. stress (kbar)    178.49      0.01     -0.01
                                0.01    178.51      0.00
                               -0.01      0.00    178.49

     hartree stress (kbar)   1374.09      0.14      1.19
                                0.14   1473.88      0.35
                                1.19      0.35   -991.16

     exc-cor stress (kbar)     51.87      0.00     -0.00
                                0.00     51.87      0.00
                               -0.00      0.00     51.87

     corecor stress (kbar)   -113.26     -0.00      0.00
                               -0.00   -113.27     -0.00
                                0.00     -0.00   -113.26

     ewald   stress (kbar)   1165.71      0.23      1.30
                                0.23   1273.56      0.45
                                1.30      0.45  -1228.29

     hubbard stress (kbar)      0.00      0.00      0.00
                                0.00      0.00      0.00
                                0.00      0.00      0.00

     DFT-D   stress (kbar)      0.07     -0.00     -0.00
                               -0.00      0.06     -0.00
                               -0.00     -0.00      0.07

     XDM     stress (kbar)      0.00      0.00      0.00
                                0.00      0.00      0.00
                                0.00      0.00      0.00

     dft-nl  stress (kbar)      0.00      0.00      0.00
                                0.00      0.00      0.00
                                0.00      0.00      0.00

     TS-vdW  stress (kbar)      0.00      0.00      0.00
                                0.00      0.00      0.00
                                0.00      0.00      0.00


                                0.00      0.00      0.00
                                0.00      0.00      0.00


                                0.00      0.00      0.00

     Energy error            =      5.7E-02 Ry
     Gradient error          =      5.0E-02 Ry/Bohr

     number of scf cycles    =   5
     number of bfgs steps    =   4

     energy             old  =    -144.5405867579 Ry
     energy             new  =    -144.5979431747 Ry

     CASE: energy            _new < energy            _old

     new trust radius        =       0.0752152862 bohr
     new conv_thr            =       0.0000000115 Ry


ATOMIC_POSITIONS (angstrom)
Si            5.0142521839        4.6455462086       22.2910442973
Cl            5.7387526496        6.4894073944       22.6590925838
Cl            5.0470894234        4.2959094686       20.3063336773
Cl            3.1178681697        4.5229726099       22.9629017334
Cl            6.1512475734        3.2746343185       23.2343677082



     Writing output data file ./out/aiida.save/
     NEW-OLD atomic charge density approx. for the potential

     negative rho (up, down):  5.967E-02 0.000E+00

     total cpu time spent up to now is       86.9 secs

     Self-consistent Calculation

     iteration #  1     ecut=    60.00 Ry     beta= 0.40
     Davidson diagonalization with overlap

---- Real-time Memory Report at c_bands before calling an iterative solver
           575 MiB given to the printing process from OS
             0 MiB allocation reported by mallinfo(arena+hblkhd)
        323918 MiB available memory on the node where the printing process lives
------------------
     ethr =  1.00E-06,  avg # of iterations = 11.0

     negative rho (up, down):  5.930E-02 0.000E+00

     total cpu time spent up to now is       87.8 secs

     total energy              =    -144.60607981 Ry
     estimated scf accuracy    <       0.00412722 Ry

     iteration #  2     ecut=    60.00 Ry     beta= 0.40
     Davidson diagonalization with overlap

---- Real-time Memory Report at c_bands before calling an iterative solver
           575 MiB given to the printing process from OS
             0 MiB allocation reported by mallinfo(arena+hblkhd)
        323911 MiB available memory on the node where the printing process lives
------------------
     ethr =  1.29E-05,  avg # of iterations =  2.0

     negative rho (up, down):  5.909E-02 0.000E+00

     total cpu time spent up to now is       88.5 secs

     total energy              =    -144.60708285 Ry
     estimated scf accuracy    <       0.00024365 Ry

     iteration #  3     ecut=    60.00 Ry     beta= 0.40
     Davidson diagonalization with overlap

---- Real-time Memory Report at c_bands before calling an iterative solver
           575 MiB given to the printing process from OS
             0 MiB allocation reported by mallinfo(arena+hblkhd)
        323912 MiB available memory on the node where the printing process lives
------------------
     ethr =  7.61E-07,  avg # of iterations =  7.0

     negative rho (up, down):  5.897E-02 0.000E+00

     total cpu time spent up to now is       89.2 secs

     total energy              =    -144.60708397 Ry
     estimated scf accuracy    <       0.00004815 Ry

     iteration #  4     ecut=    60.00 Ry     beta= 0.40
     Davidson diagonalization with overlap

---- Real-time Memory Report at c_bands before calling an iterative solver
           575 MiB given to the printing process from OS
             0 MiB allocation reported by mallinfo(arena+hblkhd)
        323912 MiB available memory on the node where the printing process lives
------------------
     ethr =  1.50E-07,  avg # of iterations =  2.0

     negative rho (up, down):  5.884E-02 0.000E+00

     total cpu time spent up to now is       89.9 secs

     total energy              =    -144.60709303 Ry
     estimated scf accuracy    <       0.00001723 Ry

     iteration #  5     ecut=    60.00 Ry     beta= 0.40
     Davidson diagonalization with overlap

---- Real-time Memory Report at c_bands before calling an iterative solver
           575 MiB given to the printing process from OS
             0 MiB allocation reported by mallinfo(arena+hblkhd)
        323912 MiB available memory on the node where the printing process lives
------------------
     ethr =  5.39E-08,  avg # of iterations =  2.0

     negative rho (up, down):  5.879E-02 0.000E+00

     total cpu time spent up to now is       90.6 secs

     total energy              =    -144.60709570 Ry
     estimated scf accuracy    <       0.00000074 Ry

     iteration #  6     ecut=    60.00 Ry     beta= 0.40
     Davidson diagonalization with overlap

---- Real-time Memory Report at c_bands before calling an iterative solver
           575 MiB given to the printing process from OS
             0 MiB allocation reported by mallinfo(arena+hblkhd)
        323911 MiB available memory on the node where the printing process lives
------------------
     ethr =  2.30E-09,  avg # of iterations =  6.0

     negative rho (up, down):  5.873E-02 0.000E+00

     total cpu time spent up to now is       91.4 secs

     total energy              =    -144.60709645 Ry
     estimated scf accuracy    <       0.00000036 Ry

     iteration #  7     ecut=    60.00 Ry     beta= 0.40
     Davidson diagonalization with overlap

---- Real-time Memory Report at c_bands before calling an iterative solver
           575 MiB given to the printing process from OS
             0 MiB allocation reported by mallinfo(arena+hblkhd)
        323911 MiB available memory on the node where the printing process lives
------------------
     ethr =  1.12E-09,  avg # of iterations =  2.0

     negative rho (up, down):  5.871E-02 0.000E+00

     total cpu time spent up to now is       92.0 secs

     total energy              =    -144.60709650 Ry
     estimated scf accuracy    <       0.00000005 Ry

     iteration #  8     ecut=    60.00 Ry     beta= 0.40
     Davidson diagonalization with overlap

---- Real-time Memory Report at c_bands before calling an iterative solver
           575 MiB given to the printing process from OS
             0 MiB allocation reported by mallinfo(arena+hblkhd)
        323913 MiB available memory on the node where the printing process lives
------------------
     ethr =  1.42E-10,  avg # of iterations =  3.0

     negative rho (up, down):  5.869E-02 0.000E+00

     total cpu time spent up to now is       92.7 secs

     End of self-consistent calculation

          k = 0.0000 0.0000 0.0000 ( 95217 PWs)   bands (ev):

   -22.1425 -20.9010 -20.8987 -20.8984 -13.4880 -10.8414 -10.8382 -10.8379
    -8.8935  -8.8915  -8.6314  -8.6307  -8.6240  -7.8127  -7.8114  -7.8101
    -1.5224  -0.3982  -0.3428  -0.3110

     occupation numbers 
     1.0000   1.0000   1.0000   1.0000   1.0000   1.0000   1.0000   1.0000
     1.0000   1.0000   1.0000   1.0000   1.0000   1.0000   1.0000   1.0000
     0.0000   0.0000   0.0000   0.0000

     the Fermi energy is    -4.7689 ev

!    total energy              =    -144.60709658 Ry
     estimated scf accuracy    <          2.7E-09 Ry
     smearing contrib. (-TS)   =       0.00000000 Ry
     internal energy E=F+TS    =    -144.60709658 Ry

     The total energy is F=E-TS. E is the sum of the following terms:
     one-electron contribution =    -601.46087831 Ry
     hartree contribution      =     303.50437708 Ry
     xc contribution           =     -43.49197938 Ry
     ewald contribution        =     196.84905944 Ry
     Dispersion Correction     =      -0.00767540 Ry
     one-center paw contrib.   =       0.00000000 Ry
      -> PAW hartree energy AE =       0.00000000 Ry
      -> PAW hartree energy PS =       0.00000000 Ry
      -> PAW xc energy AE      =       0.00000000 Ry
      -> PAW xc energy PS      =       0.00000000 Ry
      -> total E_H with PAW    =     303.50437708 Ry
      -> total E_XC with PAW   =     -43.49197938 Ry

     convergence has been achieved in   8 iterations

     negative rho (up, down):  5.869E-02 0.000E+00

     Forces acting on atoms (cartesian axes, Ry/au):

     atom    1 type  3   force =    -0.00024207    0.00018770   -0.00009379
     atom    2 type  4   force =     0.00402670    0.01055000    0.00185844
     atom    3 type  4   force =     0.00025737   -0.00214371   -0.01148751
     atom    4 type  4   force =    -0.01087207   -0.00074027    0.00391930
     atom    5 type  4   force =     0.00683007   -0.00785373    0.00580357
     The non-local contrib.  to forces
     atom    1 type  3   force =     0.00037471   -0.00045540    0.00036933
     atom    2 type  4   force =    -0.07629416   -0.19934051   -0.03782173
     atom    3 type  4   force =    -0.00332956    0.03720708    0.21256692
     atom    4 type  4   force =     0.20340162    0.01285963   -0.07171924
     atom    5 type  4   force =    -0.12176388    0.14767437   -0.10154465
     The ionic contribution  to forces
     atom    1 type  3   force =    -0.02985686    0.02125171   -0.02548982
     atom    2 type  4   force =     3.26770626    7.49928219    2.16218118
     atom    3 type  4   force =     0.10970456   -1.44867050  -11.75380782
     atom    4 type  4   force =    -8.46571141   -0.48808046    3.97741984
     atom    5 type  4   force =     5.11815745   -5.58378293    5.63969662
     The local contribution  to forces
     atom    1 type  3   force =     0.02928241   -0.02068092    0.02508013
     atom    2 type  4   force =    -3.18733251   -7.28959498   -2.12242848
     atom    3 type  4   force =    -0.10609667    1.40932352   11.52975587
     atom    4 type  4   force =     8.25149927    0.47447283   -3.90175439
     atom    5 type  4   force =    -4.98958556    5.42840889   -5.53235633
     The core correction contribution to forces
     atom    1 type  3   force =    -0.00003640    0.00007703   -0.00004411
     atom    2 type  4   force =    -0.00063167   -0.00142496   -0.00035374
     atom    3 type  4   force =    -0.00003145    0.00028694    0.00159254
     atom    4 type  4   force =     0.00151011    0.00010635   -0.00054458
     atom    5 type  4   force =    -0.00090868    0.00105888   -0.00073670
     The Hubbard contrib.    to forces
     atom    1 type  3   force =     0.00000000    0.00000000    0.00000000
     atom    2 type  4   force =     0.00000000    0.00000000    0.00000000
     atom    3 type  4   force =     0.00000000    0.00000000    0.00000000
     atom    4 type  4   force =     0.00000000    0.00000000    0.00000000
     atom    5 type  4   force =     0.00000000    0.00000000    0.00000000
     The SCF correction term to forces
     atom    1 type  3   force =    -0.00001068    0.00000110   -0.00001232
     atom    2 type  4   force =    -0.00005256   -0.00004249   -0.00004070
     atom    3 type  4   force =    -0.00002134    0.00002340    0.00009563
     atom    4 type  4   force =     0.00007051    0.00001388   -0.00005762
     atom    5 type  4   force =    -0.00004815    0.00002697   -0.00005172

     Dispersion contribution to forces:
     atom    1 type  3   force =     0.00000382   -0.00000550    0.00000182
     atom    2 type  4   force =     0.00063042    0.00167108    0.00032072
     atom    3 type  4   force =     0.00003090   -0.00031383   -0.00169183
     atom    4 type  4   force =    -0.00164309   -0.00011217    0.00057411
     atom    5 type  4   force =     0.00097795   -0.00123958    0.00079518

     Total force =     0.023320     Total SCF correction =     0.000176

     Total Dispersion Force =     0.003524


     Computing stress (Cartesian axis) and pressure


     negative rho (up, down):  5.869E-02 0.000E+00
          total   stress  (Ry/bohr**3)                   (kbar)     P=        0.37
   0.00000243   0.00000001   0.00000001            0.36        0.00        0.00
   0.00000001   0.00000276   0.00000002            0.00        0.41        0.00
   0.00000001   0.00000002   0.00000245            0.00        0.00        0.36

     kinetic stress (kbar)    194.70      0.00     -0.01
                                0.00    194.77      0.01
                               -0.01      0.01    194.70

     local   stress (kbar)  -2837.44     -0.41     -2.69
                               -0.41  -3043.59     -0.86
                               -2.69     -0.86   1914.80

     nonloc. stress (kbar)    178.03      0.00     -0.00
                                0.00    178.06      0.00
                               -0.00      0.00    178.03

     hartree stress (kbar)   1367.36      0.19      1.27
                                0.19   1466.33      0.39
                                1.27      0.39   -994.33

     exc-cor stress (kbar)     52.03     -0.00     -0.00
                               -0.00     52.03     -0.00
                               -0.00     -0.00     52.03

     corecor stress (kbar)   -113.18     -0.00      0.00
                               -0.00   -113.18      0.00
                                0.00      0.00   -113.18

     ewald   stress (kbar)   1158.80      0.22      1.43
                                0.22   1265.94      0.46
                                1.43      0.46  -1231.74

     hubbard stress (kbar)      0.00      0.00      0.00
                                0.00      0.00      0.00
                                0.00      0.00      0.00

     DFT-D   stress (kbar)      0.05     -0.00     -0.00
                               -0.00      0.04     -0.00
                               -0.00     -0.00      0.05

     XDM     stress (kbar)      0.00      0.00      0.00
                                0.00      0.00      0.00
                                0.00      0.00      0.00

     dft-nl  stress (kbar)      0.00      0.00      0.00
                                0.00      0.00      0.00
                                0.00      0.00      0.00

     TS-vdW  stress (kbar)      0.00      0.00      0.00
                                0.00      0.00      0.00
                                0.00      0.00      0.00


                                0.00      0.00      0.00
                                0.00      0.00      0.00


                                0.00      0.00      0.00

     Energy error            =      9.2E-03 Ry
     Gradient error          =      1.1E-02 Ry/Bohr

     number of scf cycles    =   6
     number of bfgs steps    =   5

     energy             old  =    -144.5979431747 Ry
     energy             new  =    -144.6070965767 Ry

     CASE: energy            _new < energy            _old

     new trust radius        =       0.0226626032 bohr
     new conv_thr            =       0.0000000018 Ry


ATOMIC_POSITIONS (angstrom)
Si            5.0141164607        4.6456437211       22.2909912058
Cl            5.7428542538        6.5001544302       22.6610100454
Cl            5.0473353171        4.2937611209       20.2946956875
Cl            3.1068065964        4.5222280360       22.9668725311
Cl            6.1580973721        3.2666826918       23.2401705302



     Writing output data file ./out/aiida.save/
     NEW-OLD atomic charge density approx. for the potential

     negative rho (up, down):  5.912E-02 0.000E+00

     total cpu time spent up to now is      100.4 secs

     Self-consistent Calculation

     iteration #  1     ecut=    60.00 Ry     beta= 0.40
     Davidson diagonalization with overlap

---- Real-time Memory Report at c_bands before calling an iterative solver
           586 MiB given to the printing process from OS
             0 MiB allocation reported by mallinfo(arena+hblkhd)
        323909 MiB available memory on the node where the printing process lives
------------------
     ethr =  1.00E-06,  avg # of iterations =  8.0

     negative rho (up, down):  5.901E-02 0.000E+00

     total cpu time spent up to now is      107.5 secs

     total energy              =    -144.60758958 Ry
     estimated scf accuracy    <       0.00032693 Ry

     iteration #  2     ecut=    60.00 Ry     beta= 0.40
     Davidson diagonalization with overlap

---- Real-time Memory Report at c_bands before calling an iterative solver
           586 MiB given to the printing process from OS
             0 MiB allocation reported by mallinfo(arena+hblkhd)
        323899 MiB available memory on the node where the printing process lives
------------------
     ethr =  1.02E-06,  avg # of iterations =  2.0

     negative rho (up, down):  5.894E-02 0.000E+00

     total cpu time spent up to now is      108.2 secs

     total energy              =    -144.60766783 Ry
     estimated scf accuracy    <       0.00001580 Ry

     iteration #  3     ecut=    60.00 Ry     beta= 0.40
     Davidson diagonalization with overlap

---- Real-time Memory Report at c_bands before calling an iterative solver
           586 MiB given to the printing process from OS
             0 MiB allocation reported by mallinfo(arena+hblkhd)
        323899 MiB available memory on the node where the printing process lives
------------------
     ethr =  4.94E-08,  avg # of iterations =  5.0

     negative rho (up, down):  5.887E-02 0.000E+00

     total cpu time spent up to now is      108.9 secs

     total energy              =    -144.60767145 Ry
     estimated scf accuracy    <       0.00000358 Ry

     iteration #  4     ecut=    60.00 Ry     beta= 0.40
     Davidson diagonalization with overlap

---- Real-time Memory Report at c_bands before calling an iterative solver
           586 MiB given to the printing process from OS
             0 MiB allocation reported by mallinfo(arena+hblkhd)
        323898 MiB available memory on the node where the printing process lives
------------------
     ethr =  1.12E-08,  avg # of iterations =  2.0

     negative rho (up, down):  5.885E-02 0.000E+00

     total cpu time spent up to now is      109.6 secs

     total energy              =    -144.60767194 Ry
     estimated scf accuracy    <       0.00000066 Ry

     iteration #  5     ecut=    60.00 Ry     beta= 0.40
     Davidson diagonalization with overlap

---- Real-time Memory Report at c_bands before calling an iterative solver
           586 MiB given to the printing process from OS
             0 MiB allocation reported by mallinfo(arena+hblkhd)
        323899 MiB available memory on the node where the printing process lives
------------------
     ethr =  2.06E-09,  avg # of iterations =  2.0

     negative rho (up, down):  5.883E-02 0.000E+00

     total cpu time spent up to now is      110.2 secs

     total energy              =    -144.60767210 Ry
     estimated scf accuracy    <       0.00000003 Ry

     iteration #  6     ecut=    60.00 Ry     beta= 0.40
     Davidson diagonalization with overlap

---- Real-time Memory Report at c_bands before calling an iterative solver
           586 MiB given to the printing process from OS
             0 MiB allocation reported by mallinfo(arena+hblkhd)
        323898 MiB available memory on the node where the printing process lives
------------------
     ethr =  1.06E-10,  avg # of iterations =  4.0

     negative rho (up, down):  5.883E-02 0.000E+00

     total cpu time spent up to now is      110.9 secs

     total energy              =    -144.60767212 Ry
     estimated scf accuracy    <          5.0E-09 Ry

     iteration #  7     ecut=    60.00 Ry     beta= 0.40
     Davidson diagonalization with overlap

---- Real-time Memory Report at c_bands before calling an iterative solver
           586 MiB given to the printing process from OS
             0 MiB allocation reported by mallinfo(arena+hblkhd)
        323899 MiB available memory on the node where the printing process lives
------------------
     ethr =  1.55E-11,  avg # of iterations =  4.0

     negative rho (up, down):  5.882E-02 0.000E+00

     total cpu time spent up to now is      111.6 secs

     End of self-consistent calculation

          k = 0.0000 0.0000 0.0000 ( 95217 PWs)   bands (ev):

   -22.0849 -20.8823 -20.8818 -20.8815 -13.4940 -10.8187 -10.8157 -10.8147
    -8.8711  -8.8690  -8.6221  -8.6213  -8.6143  -7.8220  -7.8210  -7.8194
    -1.6677  -0.4415  -0.4018  -0.3517

     occupation numbers 
     1.0000   1.0000   1.0000   1.0000   1.0000   1.0000   1.0000   1.0000
     1.0000   1.0000   1.0000   1.0000   1.0000   1.0000   1.0000   1.0000
     0.0000   0.0000   0.0000   0.0000

     the Fermi energy is    -4.7850 ev

!    total energy              =    -144.60767216 Ry
     estimated scf accuracy    <          1.7E-10 Ry
     smearing contrib. (-TS)   =       0.00000000 Ry
     internal energy E=F+TS    =    -144.60767216 Ry

     The total energy is F=E-TS. E is the sum of the following terms:
     one-electron contribution =    -599.79020709 Ry
     hartree contribution      =     302.66492619 Ry
     xc contribution           =     -43.45958243 Ry
     ewald contribution        =     195.98501378 Ry
     Dispersion Correction     =      -0.00782261 Ry
     one-center paw contrib.   =       0.00000000 Ry
      -> PAW hartree energy AE =       0.00000000 Ry
      -> PAW hartree energy PS =       0.00000000 Ry
      -> PAW xc energy AE      =       0.00000000 Ry
      -> PAW xc energy PS      =       0.00000000 Ry
      -> total E_H with PAW    =     302.66492619 Ry
      -> total E_XC with PAW   =     -43.45958243 Ry

     convergence has been achieved in   7 iterations

     negative rho (up, down):  5.882E-02 0.000E+00

     Forces acting on atoms (cartesian axes, Ry/au):

     atom    1 type  3   force =    -0.00005499   -0.00003706   -0.00003407
     atom    2 type  4   force =     0.00032795    0.00116144   -0.00002192
     atom    3 type  4   force =     0.00007820   -0.00035316   -0.00127910
     atom    4 type  4   force =    -0.00121158   -0.00011583    0.00048613
     atom    5 type  4   force =     0.00086041   -0.00065540    0.00084896
     The non-local contrib.  to forces
     atom    1 type  3   force =     0.00053066   -0.00068864    0.00042615
     atom    2 type  4   force =    -0.08079699   -0.21082361   -0.04005383
     atom    3 type  4   force =    -0.00357191    0.03939747    0.22495661
     atom    4 type  4   force =     0.21515511    0.01363192   -0.07590882
     atom    5 type  4   force =    -0.12905633    0.15638979   -0.10761743
     The ionic contribution  to forces
     atom    1 type  3   force =    -0.03021901    0.02042100   -0.02604112
     atom    2 type  4   force =     3.22357459    7.38232126    2.14098071
     atom    3 type  4   force =     0.10757681   -1.42784642  -11.64839963
     atom    4 type  4   force =    -8.34950554   -0.48064408    3.94224841
     atom    5 type  4   force =     5.04857315   -5.49425176    5.59121163
     The local contribution  to forces
     atom    1 type  3   force =     0.02969096   -0.01987889    0.02563272
     atom    2 type  4   force =    -3.14261653   -7.17101333   -2.10099903
     atom    3 type  4   force =    -0.10393416    1.38820539   11.42272548
     atom    4 type  4   force =     8.13370751    0.46693102   -3.86603620
     atom    5 type  4   force =    -4.91899716    5.33771838   -5.48302817
     The core correction contribution to forces
     atom    1 type  3   force =    -0.00006085    0.00011469   -0.00005309
     atom    2 type  4   force =    -0.00038021   -0.00078315   -0.00022752
     atom    3 type  4   force =    -0.00001983    0.00016536    0.00089772
     atom    4 type  4   force =     0.00085131    0.00006410   -0.00031157
     atom    5 type  4   force =    -0.00049986    0.00056637   -0.00039697
     The Hubbard contrib.    to forces
     atom    1 type  3   force =     0.00000000    0.00000000    0.00000000
     atom    2 type  4   force =     0.00000000    0.00000000    0.00000000
     atom    3 type  4   force =     0.00000000    0.00000000    0.00000000
     atom    4 type  4   force =     0.00000000    0.00000000    0.00000000
     atom    5 type  4   force =     0.00000000    0.00000000    0.00000000
     The SCF correction term to forces
     atom    1 type  3   force =    -0.00000130    0.00000041   -0.00000176
     atom    2 type  4   force =    -0.00000283   -0.00000450   -0.00000315
     atom    3 type  4   force =    -0.00000069    0.00000064    0.00000586
     atom    4 type  4   force =     0.00000782    0.00000039   -0.00000479
     atom    5 type  4   force =    -0.00000819    0.00000653   -0.00000815

     Dispersion contribution to forces:
     atom    1 type  3   force =     0.00000385   -0.00000556    0.00000185
     atom    2 type  4   force =     0.00054923    0.00146483    0.00027970
     atom    3 type  4   force =     0.00002729   -0.00027553   -0.00146633
     atom    4 type  4   force =    -0.00142849   -0.00009910    0.00049790
     atom    5 type  4   force =     0.00084812   -0.00108465    0.00068687

     Total force =     0.002615     Total SCF correction =     0.000018

     Total Dispersion Force =     0.003069


     Computing stress (Cartesian axis) and pressure


     negative rho (up, down):  5.882E-02 0.000E+00
          total   stress  (Ry/bohr**3)                   (kbar)     P=        0.06
   0.00000026   0.00000003  -0.00000000            0.04        0.00       -0.00
   0.00000003   0.00000060   0.00000003            0.00        0.09        0.00
  -0.00000000   0.00000003   0.00000028           -0.00        0.00        0.04

     kinetic stress (kbar)    194.37      0.00     -0.00
                                0.00    194.44      0.01
                               -0.00      0.01    194.36

     local   stress (kbar)  -2833.38     -0.46     -2.74
                               -0.46  -3039.04     -0.89
                               -2.74     -0.89   1916.72

     nonloc. stress (kbar)    177.91      0.00     -0.00
                                0.00    177.94      0.00
                               -0.00      0.00    177.91

     hartree stress (kbar)   1365.39      0.20      1.29
                                0.20   1464.10      0.40
                                1.29      0.40   -995.21

     exc-cor stress (kbar)     52.08      0.00     -0.00
                                0.00     52.08     -0.00
                               -0.00     -0.00     52.08

     corecor stress (kbar)   -113.15     -0.00      0.00
                               -0.00   -113.15     -0.00
                                0.00     -0.00   -113.15

     ewald   stress (kbar)   1156.79      0.25      1.45
                                0.25   1263.68      0.48
                                1.45      0.48  -1232.71

     hubbard stress (kbar)      0.00      0.00      0.00
                                0.00      0.00      0.00
                                0.00      0.00      0.00

     DFT-D   stress (kbar)      0.04      0.00     -0.00
                                0.00      0.03     -0.00
                               -0.00     -0.00      0.05

     XDM     stress (kbar)      0.00      0.00      0.00
                                0.00      0.00      0.00
                                0.00      0.00      0.00

     dft-nl  stress (kbar)      0.00      0.00      0.00
                                0.00      0.00      0.00
                                0.00      0.00      0.00

     TS-vdW  stress (kbar)      0.00      0.00      0.00
                                0.00      0.00      0.00
                                0.00      0.00      0.00


                                0.00      0.00      0.00
                                0.00      0.00      0.00


                                0.00      0.00      0.00

     Energy error            =      5.8E-04 Ry
     Gradient error          =      1.3E-03 Ry/Bohr

     number of scf cycles    =   7
     number of bfgs steps    =   6

     energy             old  =    -144.6070965767 Ry
     energy             new  =    -144.6076721574 Ry

     CASE: energy            _new < energy            _old

     new trust radius        =       0.0028641121 bohr
     new conv_thr            =       0.0000000002 Ry


ATOMIC_POSITIONS (angstrom)
Si            5.0140827768        4.6456214640       22.2909704995
Cl            5.7432949856        6.5014890176       22.6611134182
Cl            5.0473955130        4.2934246468       20.2932418817
Cl            3.1054242189        4.5221151529       22.9673981406
Cl            6.1590125057        3.2658197188       23.2410160600



     Writing output data file ./out/aiida.save/
     NEW-OLD atomic charge density approx. for the potential

     negative rho (up, down):  5.889E-02 0.000E+00

     total cpu time spent up to now is      119.3 secs

     Self-consistent Calculation

     iteration #  1     ecut=    60.00 Ry     beta= 0.40
     Davidson diagonalization with overlap

---- Real-time Memory Report at c_bands before calling an iterative solver
           596 MiB given to the printing process from OS
             0 MiB allocation reported by mallinfo(arena+hblkhd)
        323897 MiB available memory on the node where the printing process lives
------------------
     ethr =  1.00E-06,  avg # of iterations =  2.0

     Threshold (ethr) on eigenvalues was too large:
     Diagonalizing with lowered threshold

     Davidson diagonalization with overlap

---- Real-time Memory Report at c_bands before calling an iterative solver
           596 MiB given to the printing process from OS
             0 MiB allocation reported by mallinfo(arena+hblkhd)
        323890 MiB available memory on the node where the printing process lives
------------------
     ethr =  4.17E-09,  avg # of iterations =  7.0

     negative rho (up, down):  5.887E-02 0.000E+00

     total cpu time spent up to now is      120.5 secs

     total energy              =    -144.60767858 Ry
     estimated scf accuracy    <       0.00000525 Ry

     iteration #  2     ecut=    60.00 Ry     beta= 0.40
     Davidson diagonalization with overlap

---- Real-time Memory Report at c_bands before calling an iterative solver
           596 MiB given to the printing process from OS
             0 MiB allocation reported by mallinfo(arena+hblkhd)
        323885 MiB available memory on the node where the printing process lives
------------------
     ethr =  1.64E-08,  avg # of iterations =  2.0

     negative rho (up, down):  5.886E-02 0.000E+00

     total cpu time spent up to now is      121.2 secs

     total energy              =    -144.60767984 Ry
     estimated scf accuracy    <       0.00000029 Ry

     iteration #  3     ecut=    60.00 Ry     beta= 0.40
     Davidson diagonalization with overlap

---- Real-time Memory Report at c_bands before calling an iterative solver
           596 MiB given to the printing process from OS
             0 MiB allocation reported by mallinfo(arena+hblkhd)
        323885 MiB available memory on the node where the printing process lives
------------------
     ethr =  9.15E-10,  avg # of iterations =  1.0

     negative rho (up, down):  5.885E-02 0.000E+00

     total cpu time spent up to now is      121.9 secs

     total energy              =    -144.60767983 Ry
     estimated scf accuracy    <       0.00000006 Ry

     iteration #  4     ecut=    60.00 Ry     beta= 0.40
     Davidson diagonalization with overlap

---- Real-time Memory Report at c_bands before calling an iterative solver
           596 MiB given to the printing process from OS
             0 MiB allocation reported by mallinfo(arena+hblkhd)
        323885 MiB available memory on the node where the printing process lives
------------------
     ethr =  1.95E-10,  avg # of iterations =  3.0

     negative rho (up, down):  5.885E-02 0.000E+00

     total cpu time spent up to now is      122.6 secs

     total energy              =    -144.60767984 Ry
     estimated scf accuracy    <       0.00000002 Ry

     iteration #  5     ecut=    60.00 Ry     beta= 0.40
     Davidson diagonalization with overlap

---- Real-time Memory Report at c_bands before calling an iterative solver
           596 MiB given to the printing process from OS
             0 MiB allocation reported by mallinfo(arena+hblkhd)
        323885 MiB available memory on the node where the printing process lives
------------------
     ethr =  5.92E-11,  avg # of iterations =  2.0

     negative rho (up, down):  5.885E-02 0.000E+00

     total cpu time spent up to now is      123.3 secs

     total energy              =    -144.60767985 Ry
     estimated scf accuracy    <          5.5E-10 Ry

     iteration #  6     ecut=    60.00 Ry     beta= 0.40
     Davidson diagonalization with overlap

---- Real-time Memory Report at c_bands before calling an iterative solver
           596 MiB given to the printing process from OS
             0 MiB allocation reported by mallinfo(arena+hblkhd)
        323886 MiB available memory on the node where the printing process lives
------------------
     ethr =  1.72E-12,  avg # of iterations =  6.0

     negative rho (up, down):  5.885E-02 0.000E+00

     total cpu time spent up to now is      124.0 secs

     End of self-consistent calculation

          k = 0.0000 0.0000 0.0000 ( 95217 PWs)   bands (ev):

   -22.0779 -20.8800 -20.8797 -20.8794 -13.4947 -10.8159 -10.8129 -10.8117
    -8.8683  -8.8663  -8.6210  -8.6202  -8.6131  -7.8232  -7.8222  -7.8205
    -1.6859  -0.4480  -0.4096  -0.3556

     occupation numbers 
     1.0000   1.0000   1.0000   1.0000   1.0000   1.0000   1.0000   1.0000
     1.0000   1.0000   1.0000   1.0000   1.0000   1.0000   1.0000   1.0000
     0.0000   0.0000   0.0000   0.0000

     the Fermi energy is    -4.7862 ev

!    total energy              =    -144.60767985 Ry
     estimated scf accuracy    <          1.5E-10 Ry
     smearing contrib. (-TS)   =       0.00000000 Ry
     internal energy E=F+TS    =    -144.60767985 Ry

     The total energy is F=E-TS. E is the sum of the following terms:
     one-electron contribution =    -599.58317390 Ry
     hartree contribution      =     302.56094450 Ry
     xc contribution           =     -43.45560641 Ry
     ewald contribution        =     195.87799541 Ry
     Dispersion Correction     =      -0.00783945 Ry
     one-center paw contrib.   =       0.00000000 Ry
      -> PAW hartree energy AE =       0.00000000 Ry
      -> PAW hartree energy PS =       0.00000000 Ry
      -> PAW xc energy AE      =       0.00000000 Ry
      -> PAW xc energy PS      =       0.00000000 Ry
      -> total E_H with PAW    =     302.56094450 Ry
      -> total E_XC with PAW   =     -43.45560641 Ry

     convergence has been achieved in   6 iterations

     negative rho (up, down):  5.885E-02 0.000E+00

     Forces acting on atoms (cartesian axes, Ry/au):

     atom    1 type  3   force =    -0.00003259   -0.00005828   -0.00002168
     atom    2 type  4   force =    -0.00011302    0.00004537   -0.00024363
     atom    3 type  4   force =     0.00005348   -0.00014720   -0.00004969
     atom    4 type  4   force =    -0.00004575   -0.00004563    0.00006776
     atom    5 type  4   force =     0.00013788    0.00020574    0.00024724
     The non-local contrib.  to forces
     atom    1 type  3   force =     0.00053594   -0.00073788    0.00042667
     atom    2 type  4   force =    -0.08133082   -0.21218691   -0.04030471
     atom    3 type  4   force =    -0.00361500    0.03964875    0.22645597
     atom    4 type  4   force =     0.21657075    0.01371393   -0.07643009
     atom    5 type  4   force =    -0.12995097    0.15740771   -0.10837585
     The ionic contribution  to forces
     atom    1 type  3   force =    -0.03046182    0.01996125   -0.02624434
     atom    2 type  4   force =     3.21792459    7.36829304    2.13766870
     atom    3 type  4   force =     0.10741203   -1.42565455  -11.63532667
     atom    4 type  4   force =    -8.33509636   -0.47981552    3.93802064
     atom    5 type  4   force =     5.04022155   -5.48278422    5.58588167
     The local contribution  to forces
     atom    1 type  3   force =     0.02995001   -0.01939865    0.02584581
     atom    2 type  4   force =    -3.13690539   -7.15680710   -2.09767673
     atom    3 type  4   force =    -0.10375433    1.38598203   11.40945863
     atom    4 type  4   force =     8.11912280    0.46609641   -3.86173603
     atom    5 type  4   force =    -4.91052272    5.32614913   -5.47758431
     The core correction contribution to forces
     atom    1 type  3   force =    -0.00006156    0.00012305   -0.00005309
     atom    2 type  4   force =    -0.00035003   -0.00070681   -0.00021240
     atom    3 type  4   force =    -0.00001816    0.00015117    0.00081347
     atom    4 type  4   force =     0.00077161    0.00005924   -0.00028300
     atom    5 type  4   force =    -0.00045024    0.00050722   -0.00035562
     The Hubbard contrib.    to forces
     atom    1 type  3   force =     0.00000000    0.00000000    0.00000000
     atom    2 type  4   force =     0.00000000    0.00000000    0.00000000
     atom    3 type  4   force =     0.00000000    0.00000000    0.00000000
     atom    4 type  4   force =     0.00000000    0.00000000    0.00000000
     atom    5 type  4   force =     0.00000000    0.00000000    0.00000000
     The SCF correction term to forces
     atom    1 type  3   force =     0.00000092   -0.00000072    0.00000095
     atom    2 type  4   force =     0.00000964    0.00001387    0.00000650
     atom    3 type  4   force =     0.00000216   -0.00000383   -0.00001438
     atom    4 type  4   force =    -0.00001373   -0.00000236    0.00000781
     atom    5 type  4   force =     0.00000880   -0.00000943    0.00000803

     Dispersion contribution to forces:
     atom    1 type  3   force =     0.00000386   -0.00000557    0.00000185
     atom    2 type  4   force =     0.00053892    0.00143905    0.00027454
     atom    3 type  4   force =     0.00002671   -0.00027100   -0.00143718
     atom    4 type  4   force =    -0.00140088   -0.00009758    0.00048796
     atom    5 type  4   force =     0.00083139   -0.00106490    0.00067284

     Total force =     0.000487     Total SCF correction =     0.000032

     Total Dispersion Force =     0.003011


     Computing stress (Cartesian axis) and pressure


     negative rho (up, down):  5.885E-02 0.000E+00
          total   stress  (Ry/bohr**3)                   (kbar)     P=        0.02
   0.00000000   0.00000004  -0.00000000            0.00        0.01       -0.00
   0.00000004   0.00000034   0.00000004            0.01        0.05        0.01
  -0.00000000   0.00000004   0.00000001           -0.00        0.01        0.00

     kinetic stress (kbar)    194.33      0.00     -0.00
                                0.00    194.40      0.01
                               -0.00      0.01    194.32

     local   stress (kbar)  -2832.88     -0.46     -2.74
                               -0.46  -3038.45     -0.89
                               -2.74     -0.89   1916.94

     nonloc. stress (kbar)    177.90      0.00     -0.00
                                0.00    177.92      0.00
                               -0.00      0.00    177.89

     hartree stress (kbar)   1365.14      0.20      1.29
                                0.20   1463.82      0.40
                                1.29      0.40   -995.31

     exc-cor stress (kbar)     52.09      0.00     -0.00
                                0.00     52.09     -0.00
                               -0.00     -0.00     52.09

     corecor stress (kbar)   -113.15     -0.00      0.00
                               -0.00   -113.15     -0.00
                                0.00     -0.00   -113.15

     ewald   stress (kbar)   1156.54      0.26      1.45
                                0.26   1263.39      0.48
                                1.45      0.48  -1232.82

     hubbard stress (kbar)      0.00      0.00      0.00
                                0.00      0.00      0.00
                                0.00      0.00      0.00

     DFT-D   stress (kbar)      0.04      0.00     -0.00
                                0.00      0.03     -0.00
                               -0.00     -0.00      0.05

     XDM     stress (kbar)      0.00      0.00      0.00
                                0.00      0.00      0.00
                                0.00      0.00      0.00

     dft-nl  stress (kbar)      0.00      0.00      0.00
                                0.00      0.00      0.00
                                0.00      0.00      0.00

     TS-vdW  stress (kbar)      0.00      0.00      0.00
                                0.00      0.00      0.00
                                0.00      0.00      0.00


                                0.00      0.00      0.00
                                0.00      0.00      0.00


                                0.00      0.00      0.00

     Energy error            =      7.7E-06 Ry
     Gradient error          =      2.5E-04 Ry/Bohr

     number of scf cycles    =   8
     number of bfgs steps    =   7

     energy             old  =    -144.6076721574 Ry
     energy             new  =    -144.6076798513 Ry

     CASE: energy            _new < energy            _old

     new trust radius        =       0.0004052687 bohr
     new conv_thr            =       0.0000000002 Ry


ATOMIC_POSITIONS (angstrom)
Si            5.0140639175        4.6455886082       22.2909580012
Cl            5.7432493354        6.5015629632       22.6609839437
Cl            5.0474269377        4.2933317009       20.2931614542
Cl            3.1053484907        4.5220860050       22.9674544363
Cl            6.1591213187        3.2659007227       23.2411821646



     Writing output data file ./out/aiida.save/
     NEW-OLD atomic charge density approx. for the potential

     negative rho (up, down):  5.886E-02 0.000E+00

     total cpu time spent up to now is      131.7 secs

     Self-consistent Calculation

     iteration #  1     ecut=    60.00 Ry     beta= 0.40
     Davidson diagonalization with overlap

---- Real-time Memory Report at c_bands before calling an iterative solver
           604 MiB given to the printing process from OS
             0 MiB allocation reported by mallinfo(arena+hblkhd)
        323882 MiB available memory on the node where the printing process lives
------------------
     ethr =  1.00E-06,  avg # of iterations =  2.0

     Threshold (ethr) on eigenvalues was too large:
     Diagonalizing with lowered threshold

     Davidson diagonalization with overlap

---- Real-time Memory Report at c_bands before calling an iterative solver
           604 MiB given to the printing process from OS
             0 MiB allocation reported by mallinfo(arena+hblkhd)
        323874 MiB available memory on the node where the printing process lives
------------------
     ethr =  2.17E-10,  avg # of iterations =  7.0

     negative rho (up, down):  5.885E-02 0.000E+00

     total cpu time spent up to now is      136.5 secs

     total energy              =    -144.60768010 Ry
     estimated scf accuracy    <       0.00000002 Ry

     iteration #  2     ecut=    60.00 Ry     beta= 0.40
     Davidson diagonalization with overlap

---- Real-time Memory Report at c_bands before calling an iterative solver
           604 MiB given to the printing process from OS
             0 MiB allocation reported by mallinfo(arena+hblkhd)
        323874 MiB available memory on the node where the printing process lives
------------------
     ethr =  6.40E-11,  avg # of iterations =  2.0

     negative rho (up, down):  5.885E-02 0.000E+00

     total cpu time spent up to now is      137.2 secs

     total energy              =    -144.60768010 Ry
     estimated scf accuracy    <          1.6E-09 Ry

     iteration #  3     ecut=    60.00 Ry     beta= 0.40
     Davidson diagonalization with overlap

---- Real-time Memory Report at c_bands before calling an iterative solver
           604 MiB given to the printing process from OS
             0 MiB allocation reported by mallinfo(arena+hblkhd)
        323874 MiB available memory on the node where the printing process lives
------------------
     ethr =  4.92E-12,  avg # of iterations =  4.0

     negative rho (up, down):  5.885E-02 0.000E+00

     total cpu time spent up to now is      137.9 secs

     total energy              =    -144.60768010 Ry
     estimated scf accuracy    <          4.7E-10 Ry

     iteration #  4     ecut=    60.00 Ry     beta= 0.40
     Davidson diagonalization with overlap

---- Real-time Memory Report at c_bands before calling an iterative solver
           604 MiB given to the printing process from OS
             0 MiB allocation reported by mallinfo(arena+hblkhd)
        323874 MiB available memory on the node where the printing process lives
------------------
     ethr =  1.46E-12,  avg # of iterations =  2.0

     negative rho (up, down):  5.885E-02 0.000E+00

     total cpu time spent up to now is      138.6 secs

     End of self-consistent calculation

          k = 0.0000 0.0000 0.0000 ( 95217 PWs)   bands (ev):

   -22.0775 -20.8799 -20.8796 -20.8793 -13.4947 -10.8157 -10.8128 -10.8115
    -8.8682  -8.8661  -8.6209  -8.6201  -8.6129  -7.8233  -7.8222  -7.8205
    -1.6868  -0.4484  -0.4101  -0.3558

     occupation numbers 
     1.0000   1.0000   1.0000   1.0000   1.0000   1.0000   1.0000   1.0000
     1.0000   1.0000   1.0000   1.0000   1.0000   1.0000   1.0000   1.0000
     0.0000   0.0000   0.0000   0.0000

     the Fermi energy is    -4.7862 ev

!    total energy              =    -144.60768010 Ry
     estimated scf accuracy    <          7.7E-11 Ry
     smearing contrib. (-TS)   =       0.00000000 Ry
     internal energy E=F+TS    =    -144.60768010 Ry

     The total energy is F=E-TS. E is the sum of the following terms:
     one-electron contribution =    -599.57178909 Ry
     hartree contribution      =     302.55520387 Ry
     xc contribution           =     -43.45540657 Ry
     ewald contribution        =     195.87215196 Ry
     Dispersion Correction     =      -0.00784028 Ry
     one-center paw contrib.   =       0.00000000 Ry
      -> PAW hartree energy AE =       0.00000000 Ry
      -> PAW hartree energy PS =       0.00000000 Ry
      -> PAW xc energy AE      =       0.00000000 Ry
      -> PAW xc energy PS      =       0.00000000 Ry
      -> total E_H with PAW    =     302.55520387 Ry
      -> total E_XC with PAW   =     -43.45540657 Ry

     convergence has been achieved in   4 iterations

     negative rho (up, down):  5.885E-02 0.000E+00

     Forces acting on atoms (cartesian axes, Ry/au):

     atom    1 type  3   force =    -0.00002833   -0.00005314   -0.00001984
     atom    2 type  4   force =    -0.00013347    0.00000041   -0.00025217
     atom    3 type  4   force =     0.00004911   -0.00014411    0.00001848
     atom    4 type  4   force =     0.00001462   -0.00004589    0.00004176
     atom    5 type  4   force =     0.00009806    0.00024273    0.00021178
     The non-local contrib.  to forces
     atom    1 type  3   force =     0.00052631   -0.00075930    0.00041981
     atom    2 type  4   force =    -0.08135778   -0.21225474   -0.04030361
     atom    3 type  4   force =    -0.00362933    0.03965029    0.22654650
     atom    4 type  4   force =     0.21665048    0.01370814   -0.07647426
     atom    5 type  4   force =    -0.13001798    0.15743570   -0.10844530
     The ionic contribution  to forces
     atom    1 type  3   force =    -0.03064684    0.01962277   -0.02638442
     atom    2 type  4   force =     3.21740861    7.36792891    2.13678131
     atom    3 type  4   force =     0.10750383   -1.42592697  -11.63453218
     atom    4 type  4   force =    -8.33428250   -0.47986787    3.93789926
     atom    5 type  4   force =     5.04001690   -5.48175684    5.58623603
     The local contribution  to forces
     atom    1 type  3   force =     0.03014807   -0.01903778    0.02599508
     atom    2 type  4   force =    -3.13636950   -7.15639823   -2.09678787
     atom    3 type  4   force =    -0.10383552    1.38625201   11.40862005
     atom    4 type  4   force =     8.11826682    0.46615283   -3.86158460
     atom    5 type  4   force =    -4.91027574    5.32511559   -5.47789078
     The core correction contribution to forces
     atom    1 type  3   force =    -0.00005986    0.00012679   -0.00005186
     atom    2 type  4   force =    -0.00034815   -0.00070296   -0.00021147
     atom    3 type  4   force =    -0.00001785    0.00015096    0.00080830
     atom    4 type  4   force =     0.00076689    0.00005928   -0.00028096
     atom    5 type  4   force =    -0.00044712    0.00050409   -0.00035285
     The Hubbard contrib.    to forces
     atom    1 type  3   force =     0.00000000    0.00000000    0.00000000
     atom    2 type  4   force =     0.00000000    0.00000000    0.00000000
     atom    3 type  4   force =     0.00000000    0.00000000    0.00000000
     atom    4 type  4   force =     0.00000000    0.00000000    0.00000000
     atom    5 type  4   force =     0.00000000    0.00000000    0.00000000
     The SCF correction term to forces
     atom    1 type  3   force =     0.00000011   -0.00000041   -0.00000074
     atom    2 type  4   force =    -0.00000509   -0.00001116   -0.00000532
     atom    3 type  4   force =     0.00000138    0.00000036    0.00001075
     atom    4 type  4   force =     0.00001225   -0.00000099   -0.00000541
     atom    5 type  4   force =    -0.00000844    0.00000778   -0.00000772

     Dispersion contribution to forces:
     atom    1 type  3   force =     0.00000386   -0.00000558    0.00000185
     atom    2 type  4   force =     0.00053844    0.00143825    0.00027433
     atom    3 type  4   force =     0.00002659   -0.00027111   -0.00143539
     atom    4 type  4   force =    -0.00139933   -0.00009762    0.00048726
     atom    5 type  4   force =     0.00083044   -0.00106394    0.00067195

     Total force =     0.000476     Total SCF correction =     0.000026

     Total Dispersion Force =     0.003008


     Computing stress (Cartesian axis) and pressure


     negative rho (up, down):  5.885E-02 0.000E+00
          total   stress  (Ry/bohr**3)                   (kbar)     P=        0.02
  -0.00000001   0.00000004  -0.00000000           -0.00        0.01       -0.00
   0.00000004   0.00000033   0.00000004            0.01        0.05        0.01
  -0.00000000   0.00000004  -0.00000000           -0.00        0.01       -0.00

     kinetic stress (kbar)    194.33      0.00     -0.00
                                0.00    194.40      0.01
                               -0.00      0.01    194.32

     local   stress (kbar)  -2832.86     -0.46     -2.74
                               -0.46  -3038.40     -0.88
                               -2.74     -0.88   1916.94

     nonloc. stress (kbar)    177.90      0.00     -0.00
                                0.00    177.92      0.00
                               -0.00      0.00    177.89

     hartree stress (kbar)   1365.13      0.20      1.29
                                0.20   1463.80      0.40
                                1.29      0.40   -995.31

     exc-cor stress (kbar)     52.09      0.00     -0.00
                                0.00     52.09     -0.00
                               -0.00     -0.00     52.09

     corecor stress (kbar)   -113.15     -0.00      0.00
                               -0.00   -113.15     -0.00
                                0.00     -0.00   -113.15

     ewald   stress (kbar)   1156.52      0.26      1.45
                                0.26   1263.36      0.48
                                1.45      0.48  -1232.82

     hubbard stress (kbar)      0.00      0.00      0.00
                                0.00      0.00      0.00
                                0.00      0.00      0.00

     DFT-D   stress (kbar)      0.04      0.00     -0.00
                                0.00      0.03     -0.00
                               -0.00     -0.00      0.05

     XDM     stress (kbar)      0.00      0.00      0.00
                                0.00      0.00      0.00
                                0.00      0.00      0.00

     dft-nl  stress (kbar)      0.00      0.00      0.00
                                0.00      0.00      0.00
                                0.00      0.00      0.00

     TS-vdW  stress (kbar)      0.00      0.00      0.00
                                0.00      0.00      0.00
                                0.00      0.00      0.00


                                0.00      0.00      0.00
                                0.00      0.00      0.00


                                0.00      0.00      0.00

     Energy error            =      2.5E-07 Ry
     Gradient error          =      2.5E-04 Ry/Bohr

     number of scf cycles    =   9
     number of bfgs steps    =   8

     energy             old  =    -144.6076798513 Ry
     energy             new  =    -144.6076801037 Ry

     CASE: energy            _new < energy            _old


     WARNING: bfgs curvature condition failed, Theta= 0.935
     new trust radius        =       0.0004457956 bohr
     new conv_thr            =       0.0000000002 Ry


ATOMIC_POSITIONS (angstrom)
Si            5.0140431636        4.6455514500       22.2909438755
Cl            5.7431788125        6.5016111685       22.6608229033
Cl            5.0474621512        4.2932270156       20.2931158602
Cl            3.1053044827        4.5220528808       22.9675032426
Cl            6.1592213900        3.2660274852       23.2413541184



     Writing output data file ./out/aiida.save/
     NEW-OLD atomic charge density approx. for the potential

     negative rho (up, down):  5.886E-02 0.000E+00

     total cpu time spent up to now is      146.3 secs

     Self-consistent Calculation

     iteration #  1     ecut=    60.00 Ry     beta= 0.40
     Davidson diagonalization with overlap

---- Real-time Memory Report at c_bands before calling an iterative solver
           610 MiB given to the printing process from OS
             0 MiB allocation reported by mallinfo(arena+hblkhd)
        323875 MiB available memory on the node where the printing process lives
------------------
     ethr =  1.00E-06,  avg # of iterations =  2.0

     Threshold (ethr) on eigenvalues was too large:
     Diagonalizing with lowered threshold

     Davidson diagonalization with overlap

---- Real-time Memory Report at c_bands before calling an iterative solver
           610 MiB given to the printing process from OS
             0 MiB allocation reported by mallinfo(arena+hblkhd)
        323867 MiB available memory on the node where the printing process lives
------------------
     ethr =  2.87E-10,  avg # of iterations =  6.0

     negative rho (up, down):  5.886E-02 0.000E+00

     total cpu time spent up to now is      148.0 secs

     total energy              =    -144.60768038 Ry
     estimated scf accuracy    <          6.9E-09 Ry

     iteration #  2     ecut=    60.00 Ry     beta= 0.40
     Davidson diagonalization with overlap

---- Real-time Memory Report at c_bands before calling an iterative solver
           610 MiB given to the printing process from OS
             0 MiB allocation reported by mallinfo(arena+hblkhd)
        323867 MiB available memory on the node where the printing process lives
------------------
     ethr =  2.17E-11,  avg # of iterations =  2.0

     negative rho (up, down):  5.886E-02 0.000E+00

     total cpu time spent up to now is      148.7 secs

     total energy              =    -144.60768038 Ry
     estimated scf accuracy    <          1.5E-09 Ry

     iteration #  3     ecut=    60.00 Ry     beta= 0.40
     Davidson diagonalization with overlap

---- Real-time Memory Report at c_bands before calling an iterative solver
           610 MiB given to the printing process from OS
             0 MiB allocation reported by mallinfo(arena+hblkhd)
        323868 MiB available memory on the node where the printing process lives
------------------
     ethr =  4.59E-12,  avg # of iterations =  2.0

     negative rho (up, down):  5.886E-02 0.000E+00

     total cpu time spent up to now is      149.4 secs

     total energy              =    -144.60768038 Ry
     estimated scf accuracy    <          2.1E-10 Ry

     iteration #  4     ecut=    60.00 Ry     beta= 0.40
     Davidson diagonalization with overlap

---- Real-time Memory Report at c_bands before calling an iterative solver
           610 MiB given to the printing process from OS
             0 MiB allocation reported by mallinfo(arena+hblkhd)
        323868 MiB available memory on the node where the printing process lives
------------------
     ethr =  6.53E-13,  avg # of iterations =  5.0

     negative rho (up, down):  5.886E-02 0.000E+00

     total cpu time spent up to now is      150.1 secs

     End of self-consistent calculation

          k = 0.0000 0.0000 0.0000 ( 95217 PWs)   bands (ev):

   -22.0773 -20.8798 -20.8796 -20.8792 -13.4948 -10.8156 -10.8128 -10.8114
    -8.8681  -8.8661  -8.6209  -8.6201  -8.6128  -7.8234  -7.8222  -7.8205
    -1.6873  -0.4486  -0.4103  -0.3558

     occupation numbers 
     1.0000   1.0000   1.0000   1.0000   1.0000   1.0000   1.0000   1.0000
     1.0000   1.0000   1.0000   1.0000   1.0000   1.0000   1.0000   1.0000
     0.0000   0.0000   0.0000   0.0000

     the Fermi energy is    -4.7862 ev

!    total energy              =    -144.60768038 Ry
     estimated scf accuracy    <          1.6E-11 Ry
     smearing contrib. (-TS)   =       0.00000000 Ry
     internal energy E=F+TS    =    -144.60768038 Ry

     The total energy is F=E-TS. E is the sum of the following terms:
     one-electron contribution =    -599.56516723 Ry
     hartree contribution      =     302.55189622 Ry
     xc contribution           =     -43.45529433 Ry
     ewald contribution        =     195.86872569 Ry
     Dispersion Correction     =      -0.00784072 Ry
     one-center paw contrib.   =       0.00000000 Ry
      -> PAW hartree energy AE =       0.00000000 Ry
      -> PAW hartree energy PS =       0.00000000 Ry
      -> PAW xc energy AE      =       0.00000000 Ry
      -> PAW xc energy PS      =       0.00000000 Ry
      -> total E_H with PAW    =     302.55189622 Ry
      -> total E_XC with PAW   =     -43.45529433 Ry

     convergence has been achieved in   4 iterations

     negative rho (up, down):  5.886E-02 0.000E+00

     Forces acting on atoms (cartesian axes, Ry/au):

     atom    1 type  3   force =    -0.00002333   -0.00004637   -0.00001609
     atom    2 type  4   force =    -0.00014381   -0.00001970   -0.00025483
     atom    3 type  4   force =     0.00004415   -0.00014657    0.00005956
     atom    4 type  4   force =     0.00005034   -0.00004802    0.00002417
     atom    5 type  4   force =     0.00007264    0.00026066    0.00018718
     The non-local contrib.  to forces
     atom    1 type  3   force =     0.00051586   -0.00078131    0.00041201
     atom    2 type  4   force =    -0.08136511   -0.21228054   -0.04028873
     atom    3 type  4   force =    -0.00364447    0.03964485    0.22659314
     atom    4 type  4   force =     0.21668681    0.01369933   -0.07650305
     atom    5 type  4   force =    -0.13006048    0.15742791   -0.10849684
     The ionic contribution  to forces
     atom    1 type  3   force =    -0.03084888    0.01925132   -0.02653527
     atom    2 type  4   force =     3.21696644    7.36795172    2.13581110
     atom    3 type  4   force =     0.10761993   -1.42634279  -11.63401653
     atom    4 type  4   force =    -8.33378920   -0.47996311    3.93789346
     atom    5 type  4   force =     5.04005170   -5.48089714    5.58684724
     The local contribution  to forces
     atom    1 type  3   force =     0.03036310   -0.01864276    0.02615466
     atom    2 type  4   force =    -3.13593505   -7.15642414   -2.09583974
     atom    3 type  4   force =    -0.10394155    1.38667113   11.40811222
     atom    4 type  4   force =     8.11778652    0.46625422   -3.86157503
     atom    5 type  4   force =    -4.91030316    5.32428777   -5.47848505
     The core correction contribution to forces
     atom    1 type  3   force =    -0.00005803    0.00013068   -0.00005053
     atom    2 type  4   force =    -0.00034740   -0.00070168   -0.00021122
     atom    3 type  4   force =    -0.00001756    0.00015118    0.00080581
     atom    4 type  4   force =     0.00076481    0.00005948   -0.00027995
     atom    5 type  4   force =    -0.00044563    0.00050290   -0.00035143
     The Hubbard contrib.    to forces
     atom    1 type  3   force =     0.00000000    0.00000000    0.00000000
     atom    2 type  4   force =     0.00000000    0.00000000    0.00000000
     atom    3 type  4   force =     0.00000000    0.00000000    0.00000000
     atom    4 type  4   force =     0.00000000    0.00000000    0.00000000
     atom    5 type  4   force =     0.00000000    0.00000000    0.00000000
     The SCF correction term to forces
     atom    1 type  3   force =     0.00000068    0.00000108    0.00000061
     atom    2 type  4   force =    -0.00000098   -0.00000340   -0.00000108
     atom    3 type  4   force =     0.00000124    0.00000025   -0.00000142
     atom    4 type  4   force =    -0.00000031   -0.00000043    0.00000137
     atom    5 type  4   force =     0.00000025    0.00000244    0.00000131

     Dispersion contribution to forces:
     atom    1 type  3   force =     0.00000386   -0.00000558    0.00000185
     atom    2 type  4   force =     0.00053820    0.00143813    0.00027425
     atom    3 type  4   force =     0.00002648   -0.00027139   -0.00143424
     atom    4 type  4   force =    -0.00139839   -0.00009772    0.00048678
     atom    5 type  4   force =     0.00082986   -0.00106344    0.00067137

     Total force =     0.000479     Total SCF correction =     0.000005

     Total Dispersion Force =     0.003006


     Computing stress (Cartesian axis) and pressure


     negative rho (up, down):  5.886E-02 0.000E+00
          total   stress  (Ry/bohr**3)                   (kbar)     P=        0.01
  -0.00000002   0.00000004  -0.00000000           -0.00        0.01       -0.00
   0.00000004   0.00000032   0.00000004            0.01        0.05        0.01
  -0.00000000   0.00000004  -0.00000001           -0.00        0.01       -0.00

     kinetic stress (kbar)    194.32      0.00     -0.00
                                0.00    194.40      0.01
                               -0.00      0.01    194.32

     local   stress (kbar)  -2832.84     -0.47     -2.74
                               -0.47  -3038.37     -0.87
                               -2.74     -0.87   1916.93

     nonloc. stress (kbar)    177.90      0.00     -0.00
                                0.00    177.92      0.00
                               -0.00      0.00    177.89

     hartree stress (kbar)   1365.12      0.20      1.29
                                0.20   1463.78      0.40
                                1.29      0.40   -995.31

     exc-cor stress (kbar)     52.09      0.00     -0.00
                                0.00     52.09     -0.00
                               -0.00     -0.00     52.09

     corecor stress (kbar)   -113.15     -0.00      0.00
                               -0.00   -113.15     -0.00
                                0.00     -0.00   -113.15

     ewald   stress (kbar)   1156.52      0.26      1.45
                                0.26   1263.34      0.47
                                1.45      0.47  -1232.81

     hubbard stress (kbar)      0.00      0.00      0.00
                                0.00      0.00      0.00
                                0.00      0.00      0.00

     DFT-D   stress (kbar)      0.04      0.00     -0.00
                                0.00      0.03     -0.00
                               -0.00     -0.00      0.05

     XDM     stress (kbar)      0.00      0.00      0.00
                                0.00      0.00      0.00
                                0.00      0.00      0.00

     dft-nl  stress (kbar)      0.00      0.00      0.00
                                0.00      0.00      0.00
                                0.00      0.00      0.00

     TS-vdW  stress (kbar)      0.00      0.00      0.00
                                0.00      0.00      0.00
                                0.00      0.00      0.00


                                0.00      0.00      0.00
                                0.00      0.00      0.00


                                0.00      0.00      0.00

     Energy error            =      2.7E-07 Ry
     Gradient error          =      2.6E-04 Ry/Bohr

     number of scf cycles    =  10
     number of bfgs steps    =   9

     energy             old  =    -144.6076801037 Ry
     energy             new  =    -144.6076803764 Ry

     CASE: energy            _new < energy            _old

     new trust radius        =       0.0006686934 bohr
     new conv_thr            =       0.0000000002 Ry


ATOMIC_POSITIONS (angstrom)
Si            5.0140135739        4.6454973749       22.2909240708
Cl            5.7430607820        6.5016654196       22.6605707728
Cl            5.0475138923        4.2930659530       20.2930764121
Cl            3.1052645623        4.5220013435       22.9675663325
Cl            6.1593571894        3.2662399090       23.2416024119



     Writing output data file ./out/aiida.save/
     NEW-OLD atomic charge density approx. for the potential

     negative rho (up, down):  5.886E-02 0.000E+00

     total cpu time spent up to now is      157.8 secs

     Self-consistent Calculation

     iteration #  1     ecut=    60.00 Ry     beta= 0.40
     Davidson diagonalization with overlap

---- Real-time Memory Report at c_bands before calling an iterative solver
           617 MiB given to the printing process from OS
             0 MiB allocation reported by mallinfo(arena+hblkhd)
        323868 MiB available memory on the node where the printing process lives
------------------
     ethr =  1.00E-06,  avg # of iterations =  2.0

     Threshold (ethr) on eigenvalues was too large:
     Diagonalizing with lowered threshold

     Davidson diagonalization with overlap

---- Real-time Memory Report at c_bands before calling an iterative solver
           617 MiB given to the printing process from OS
             0 MiB allocation reported by mallinfo(arena+hblkhd)
        323859 MiB available memory on the node where the printing process lives
------------------
     ethr =  6.46E-10,  avg # of iterations =  6.0

     negative rho (up, down):  5.886E-02 0.000E+00

     total cpu time spent up to now is      162.3 secs

     total energy              =    -144.60768079 Ry
     estimated scf accuracy    <       0.00000001 Ry

     iteration #  2     ecut=    60.00 Ry     beta= 0.40
     Davidson diagonalization with overlap

---- Real-time Memory Report at c_bands before calling an iterative solver
           617 MiB given to the printing process from OS
             0 MiB allocation reported by mallinfo(arena+hblkhd)
        323858 MiB available memory on the node where the printing process lives
------------------
     ethr =  4.26E-11,  avg # of iterations =  4.0

     negative rho (up, down):  5.886E-02 0.000E+00

     total cpu time spent up to now is      162.9 secs

     total energy              =    -144.60768079 Ry
     estimated scf accuracy    <          3.3E-09 Ry

     iteration #  3     ecut=    60.00 Ry     beta= 0.40
     Davidson diagonalization with overlap

---- Real-time Memory Report at c_bands before calling an iterative solver
           617 MiB given to the printing process from OS
             0 MiB allocation reported by mallinfo(arena+hblkhd)
        323857 MiB available memory on the node where the printing process lives
------------------
     ethr =  1.02E-11,  avg # of iterations =  4.0

     negative rho (up, down):  5.886E-02 0.000E+00

     total cpu time spent up to now is      163.6 secs

     total energy              =    -144.60768079 Ry
     estimated scf accuracy    <          4.8E-10 Ry

     iteration #  4     ecut=    60.00 Ry     beta= 0.40
     Davidson diagonalization with overlap

---- Real-time Memory Report at c_bands before calling an iterative solver
           617 MiB given to the printing process from OS
             0 MiB allocation reported by mallinfo(arena+hblkhd)
        323857 MiB available memory on the node where the printing process lives
------------------
     ethr =  1.49E-12,  avg # of iterations =  2.0

     negative rho (up, down):  5.886E-02 0.000E+00

     total cpu time spent up to now is      164.3 secs

     End of self-consistent calculation

          k = 0.0000 0.0000 0.0000 ( 95217 PWs)   bands (ev):

   -22.0772 -20.8798 -20.8795 -20.8791 -13.4948 -10.8156 -10.8128 -10.8113
    -8.8680  -8.8660  -8.6209  -8.6201  -8.6127  -7.8235  -7.8222  -7.8205
    -1.6877  -0.4488  -0.4104  -0.3559

     occupation numbers 
     1.0000   1.0000   1.0000   1.0000   1.0000   1.0000   1.0000   1.0000
     1.0000   1.0000   1.0000   1.0000   1.0000   1.0000   1.0000   1.0000
     0.0000   0.0000   0.0000   0.0000

     the Fermi energy is    -4.7862 ev

!    total energy              =    -144.60768079 Ry
     estimated scf accuracy    <          3.4E-11 Ry
     smearing contrib. (-TS)   =       0.00000000 Ry
     internal energy E=F+TS    =    -144.60768079 Ry

     The total energy is F=E-TS. E is the sum of the following terms:
     one-electron contribution =    -599.55895775 Ry
     hartree contribution      =     302.54878489 Ry
     xc contribution           =     -43.45519905 Ry
     ewald contribution        =     195.86553222 Ry
     Dispersion Correction     =      -0.00784108 Ry
     one-center paw contrib.   =       0.00000000 Ry
      -> PAW hartree energy AE =       0.00000000 Ry
      -> PAW hartree energy PS =       0.00000000 Ry
      -> PAW xc energy AE      =       0.00000000 Ry
      -> PAW xc energy PS      =       0.00000000 Ry
      -> total E_H with PAW    =     302.54878489 Ry
      -> total E_XC with PAW   =     -43.45519905 Ry

     convergence has been achieved in   4 iterations

     negative rho (up, down):  5.886E-02 0.000E+00

     Forces acting on atoms (cartesian axes, Ry/au):

     atom    1 type  3   force =    -0.00001627   -0.00003589   -0.00001188
     atom    2 type  4   force =    -0.00015258   -0.00003105   -0.00025613
     atom    3 type  4   force =     0.00003781   -0.00015319    0.00009807
     atom    4 type  4   force =     0.00008172   -0.00005307    0.00000539
     atom    5 type  4   force =     0.00004931    0.00027320    0.00016456
     The non-local contrib.  to forces
     atom    1 type  3   force =     0.00050009   -0.00081217    0.00040020
     atom    2 type  4   force =    -0.08136664   -0.21229882   -0.04026094
     atom    3 type  4   force =    -0.00366692    0.03963610    0.22664194
     atom    4 type  4   force =     0.21672233    0.01368817   -0.07654057
     atom    5 type  4   force =    -0.13010997    0.15740130   -0.10856142
     The ionic contribution  to forces
     atom    1 type  3   force =    -0.03113757    0.01872073   -0.02675118
     atom    2 type  4   force =     3.21637988    7.36824535    2.13436118
     atom    3 type  4   force =     0.10779923   -1.42704443  -11.63346958
     atom    4 type  4   force =    -8.33331257   -0.48013228    3.93796175
     atom    5 type  4   force =     5.04027103   -5.47978937    5.58789783
     The local contribution  to forces
     atom    1 type  3   force =     0.03067166   -0.01807639    0.02638444
     atom    2 type  4   force =    -3.13535543   -7.15670967   -2.09441766
     atom    3 type  4   force =    -0.10410502    1.38737402   11.40755655
     atom    4 type  4   force =     8.11730814    0.46642933   -3.86162575
     atom    5 type  4   force =    -4.91049760    5.32321917   -5.47949685
     The core correction contribution to forces
     atom    1 type  3   force =    -0.00005528    0.00013615   -0.00004850
     atom    2 type  4   force =    -0.00034676   -0.00070089   -0.00021107
     atom    3 type  4   force =    -0.00001713    0.00015166    0.00080318
     atom    4 type  4   force =     0.00076262    0.00005971   -0.00027868
     atom    5 type  4   force =    -0.00044411    0.00050191   -0.00034995
     The Hubbard contrib.    to forces
     atom    1 type  3   force =     0.00000000    0.00000000    0.00000000
     atom    2 type  4   force =     0.00000000    0.00000000    0.00000000
     atom    3 type  4   force =     0.00000000    0.00000000    0.00000000
     atom    4 type  4   force =     0.00000000    0.00000000    0.00000000
     atom    5 type  4   force =     0.00000000    0.00000000    0.00000000
     The SCF correction term to forces
     atom    1 type  3   force =     0.00000111    0.00000173    0.00000093
     atom    2 type  4   force =    -0.00000151   -0.00000504   -0.00000225
     atom    3 type  4   force =     0.00000147    0.00000172   -0.00000135
     atom    4 type  4   force =    -0.00000117    0.00000023    0.00000202
     atom    5 type  4   force =     0.00000077    0.00000358    0.00000382

     Dispersion contribution to forces:
     atom    1 type  3   force =     0.00000385   -0.00000559    0.00000185
     atom    2 type  4   force =     0.00053801    0.00143839    0.00027421
     atom    3 type  4   force =     0.00002632   -0.00027190   -0.00143306
     atom    4 type  4   force =    -0.00139749   -0.00009787    0.00048623
     atom    5 type  4   force =     0.00082932   -0.00106302    0.00067076

     Total force =     0.000490     Total SCF correction =     0.000009

     Total Dispersion Force =     0.003005


     Computing stress (Cartesian axis) and pressure


     negative rho (up, down):  5.886E-02 0.000E+00
          total   stress  (Ry/bohr**3)                   (kbar)     P=        0.01
  -0.00000003   0.00000004  -0.00000000           -0.00        0.01       -0.00
   0.00000004   0.00000032   0.00000004            0.01        0.05        0.01
  -0.00000000   0.00000004  -0.00000002           -0.00        0.01       -0.00

     kinetic stress (kbar)    194.32      0.00     -0.00
                                0.00    194.40      0.01
                               -0.00      0.01    194.31

     local   stress (kbar)  -2832.83     -0.47     -2.74
                               -0.47  -3038.32     -0.86
                               -2.74     -0.86   1916.91

     nonloc. stress (kbar)    177.90      0.00     -0.00
                                0.00    177.92      0.00
                               -0.00      0.00    177.89

     hartree stress (kbar)   1365.12      0.21      1.29
                                0.21   1463.76      0.39
                                1.29      0.39   -995.30

     exc-cor stress (kbar)     52.09      0.00     -0.00
                                0.00     52.09     -0.00
                               -0.00     -0.00     52.09

     corecor stress (kbar)   -113.15     -0.00      0.00
                               -0.00   -113.15     -0.00
                                0.00     -0.00   -113.15

     ewald   stress (kbar)   1156.51      0.26      1.45
                                0.26   1263.31      0.46
                                1.45      0.46  -1232.80

     hubbard stress (kbar)      0.00      0.00      0.00
                                0.00      0.00      0.00
                                0.00      0.00      0.00

     DFT-D   stress (kbar)      0.04      0.00     -0.00
                                0.00      0.03     -0.00
                               -0.00     -0.00      0.05

     XDM     stress (kbar)      0.00      0.00      0.00
                                0.00      0.00      0.00
                                0.00      0.00      0.00

     dft-nl  stress (kbar)      0.00      0.00      0.00
                                0.00      0.00      0.00
                                0.00      0.00      0.00

     TS-vdW  stress (kbar)      0.00      0.00      0.00
                                0.00      0.00      0.00
                                0.00      0.00      0.00


                                0.00      0.00      0.00
                                0.00      0.00      0.00


                                0.00      0.00      0.00

     Energy error            =      4.1E-07 Ry
     Gradient error          =      2.7E-04 Ry/Bohr

     number of scf cycles    =  11
     number of bfgs steps    =  10

     energy             old  =    -144.6076803764 Ry
     energy             new  =    -144.6076807891 Ry

     CASE: energy            _new < energy            _old

     new trust radius        =       0.0010030401 bohr
     new conv_thr            =       0.0000000002 Ry


ATOMIC_POSITIONS (angstrom)
Si            5.0139720731        4.6454204301       22.2908959624
Cl            5.7428746299        6.5017379362       22.6601848438
Cl            5.0475894811        4.2928179208       20.2930401518
Cl            3.1052238433        4.5219203812       22.9676513937
Cl            6.1595499726        3.2665733317       23.2419676483



     Writing output data file ./out/aiida.save/
     NEW-OLD atomic charge density approx. for the potential

     negative rho (up, down):  5.887E-02 0.000E+00

     total cpu time spent up to now is      172.0 secs

     Self-consistent Calculation

     iteration #  1     ecut=    60.00 Ry     beta= 0.40
     Davidson diagonalization with overlap

---- Real-time Memory Report at c_bands before calling an iterative solver
           622 MiB given to the printing process from OS
             0 MiB allocation reported by mallinfo(arena+hblkhd)
        323862 MiB available memory on the node where the printing process lives
------------------
     ethr =  1.00E-06,  avg # of iterations =  2.0

     Threshold (ethr) on eigenvalues was too large:
     Diagonalizing with lowered threshold

     Davidson diagonalization with overlap

---- Real-time Memory Report at c_bands before calling an iterative solver
           622 MiB given to the printing process from OS
             0 MiB allocation reported by mallinfo(arena+hblkhd)
        323854 MiB available memory on the node where the printing process lives
------------------
     ethr =  1.55E-09,  avg # of iterations =  6.0

     negative rho (up, down):  5.887E-02 0.000E+00

     total cpu time spent up to now is      173.1 secs

     total energy              =    -144.60768139 Ry
     estimated scf accuracy    <       0.00000003 Ry

     iteration #  2     ecut=    60.00 Ry     beta= 0.40
     Davidson diagonalization with overlap

---- Real-time Memory Report at c_bands before calling an iterative solver
           622 MiB given to the printing process from OS
             0 MiB allocation reported by mallinfo(arena+hblkhd)
        323854 MiB available memory on the node where the printing process lives
------------------
     ethr =  8.22E-11,  avg # of iterations =  4.0

     negative rho (up, down):  5.887E-02 0.000E+00

     total cpu time spent up to now is      173.8 secs

     total energy              =    -144.60768140 Ry
     estimated scf accuracy    <          7.4E-09 Ry

     iteration #  3     ecut=    60.00 Ry     beta= 0.40
     Davidson diagonalization with overlap

---- Real-time Memory Report at c_bands before calling an iterative solver
           622 MiB given to the printing process from OS
             0 MiB allocation reported by mallinfo(arena+hblkhd)
        323854 MiB available memory on the node where the printing process lives
------------------
     ethr =  2.30E-11,  avg # of iterations =  2.0

     negative rho (up, down):  5.887E-02 0.000E+00

     total cpu time spent up to now is      174.5 secs

     total energy              =    -144.60768140 Ry
     estimated scf accuracy    <          5.7E-10 Ry

     iteration #  4     ecut=    60.00 Ry     beta= 0.40
     Davidson diagonalization with overlap

---- Real-time Memory Report at c_bands before calling an iterative solver
           622 MiB given to the printing process from OS
             0 MiB allocation reported by mallinfo(arena+hblkhd)
        323854 MiB available memory on the node where the printing process lives
------------------
     ethr =  1.79E-12,  avg # of iterations =  5.0

     negative rho (up, down):  5.887E-02 0.000E+00

     total cpu time spent up to now is      175.2 secs

     End of self-consistent calculation

          k = 0.0000 0.0000 0.0000 ( 95217 PWs)   bands (ev):

   -22.0770 -20.8798 -20.8795 -20.8789 -13.4948 -10.8155 -10.8128 -10.8111
    -8.8680  -8.8659  -8.6210  -8.6202  -8.6126  -7.8237  -7.8222  -7.8204
    -1.6880  -0.4490  -0.4105  -0.3559

     occupation numbers 
     1.0000   1.0000   1.0000   1.0000   1.0000   1.0000   1.0000   1.0000
     1.0000   1.0000   1.0000   1.0000   1.0000   1.0000   1.0000   1.0000
     0.0000   0.0000   0.0000   0.0000

     the Fermi energy is    -4.7862 ev

!    total energy              =    -144.60768140 Ry
     estimated scf accuracy    <          8.6E-11 Ry
     smearing contrib. (-TS)   =       0.00000000 Ry
     internal energy E=F+TS    =    -144.60768140 Ry

     The total energy is F=E-TS. E is the sum of the following terms:
     one-electron contribution =    -599.55235148 Ry
     hartree contribution      =     302.54548063 Ry
     xc contribution           =     -43.45510667 Ry
     ewald contribution        =     195.86213754 Ry
     Dispersion Correction     =      -0.00784142 Ry
     one-center paw contrib.   =       0.00000000 Ry
      -> PAW hartree energy AE =       0.00000000 Ry
      -> PAW hartree energy PS =       0.00000000 Ry
      -> PAW xc energy AE      =       0.00000000 Ry
      -> PAW xc energy PS      =       0.00000000 Ry
      -> total E_H with PAW    =     302.54548063 Ry
      -> total E_XC with PAW   =     -43.45510667 Ry

     convergence has been achieved in   4 iterations

     negative rho (up, down):  5.887E-02 0.000E+00

     Forces acting on atoms (cartesian axes, Ry/au):

     atom    1 type  3   force =    -0.00000691   -0.00002068   -0.00000553
     atom    2 type  4   force =    -0.00015954   -0.00003295   -0.00025390
     atom    3 type  4   force =     0.00002986   -0.00016776    0.00013937
     atom    4 type  4   force =     0.00011296   -0.00005992   -0.00001530
     atom    5 type  4   force =     0.00002363    0.00028131    0.00013536
     The non-local contrib.  to forces
     atom    1 type  3   force =     0.00047802   -0.00085612    0.00038417
     atom    2 type  4   force =    -0.08136446   -0.21231046   -0.04021873
     atom    3 type  4   force =    -0.00369534    0.03961516    0.22669238
     atom    4 type  4   force =     0.21675206    0.01366699   -0.07658186
     atom    5 type  4   force =    -0.13017274    0.15735041   -0.10864761
     The ionic contribution  to forces
     atom    1 type  3   force =    -0.03154342    0.01796711   -0.02705478
     atom    2 type  4   force =     3.21554588    7.36886115    2.13218556
     atom    3 type  4   force =     0.10806983   -1.42816426  -11.63281051
     atom    4 type  4   force =    -8.33278688   -0.48041187    3.93811155
     atom    5 type  4   force =     5.04071458   -5.47825213    5.58956818
     The local contribution  to forces
     atom    1 type  3   force =     0.03110430   -0.01727239    0.02670753
     atom    2 type  4   force =    -3.13453031   -7.15731674   -2.09228100
     atom    3 type  4   force =    -0.10435643    1.38849995   11.40689152
     atom    4 type  4   force =     8.11678813    0.46672401   -3.86175944
     atom    5 type  4   force =    -4.91090612    5.32173977   -5.48111301
     The core correction contribution to forces
     atom    1 type  3   force =    -0.00005143    0.00014390   -0.00004571
     atom    2 type  4   force =    -0.00034596   -0.00070061   -0.00021080
     atom    3 type  4   force =    -0.00001674    0.00015296    0.00080048
     atom    4 type  4   force =     0.00076078    0.00006041   -0.00027757
     atom    5 type  4   force =    -0.00044244    0.00050109   -0.00034833
     The Hubbard contrib.    to forces
     atom    1 type  3   force =     0.00000000    0.00000000    0.00000000
     atom    2 type  4   force =     0.00000000    0.00000000    0.00000000
     atom    3 type  4   force =     0.00000000    0.00000000    0.00000000
     atom    4 type  4   force =     0.00000000    0.00000000    0.00000000
     atom    5 type  4   force =     0.00000000    0.00000000    0.00000000
     The SCF correction term to forces
     atom    1 type  3   force =     0.00000201    0.00000244    0.00000091
     atom    2 type  4   force =    -0.00000228   -0.00000530   -0.00000364
     atom    3 type  4   force =     0.00000269    0.00000115   -0.00000332
     atom    4 type  4   force =    -0.00000436   -0.00000133    0.00000595
     atom    5 type  4   force =     0.00000185    0.00000483    0.00000559

     Dispersion contribution to forces:
     atom    1 type  3   force =     0.00000385   -0.00000560    0.00000184
     atom    2 type  4   force =     0.00053783    0.00143905    0.00027421
     atom    3 type  4   force =     0.00002610   -0.00027270   -0.00143168
     atom    4 type  4   force =    -0.00139652   -0.00009811    0.00048557
     atom    5 type  4   force =     0.00082874   -0.00106264    0.00067005

     Total force =     0.000505     Total SCF correction =     0.000014

     Total Dispersion Force =     0.003003


     Computing stress (Cartesian axis) and pressure


     negative rho (up, down):  5.887E-02 0.000E+00
          total   stress  (Ry/bohr**3)                   (kbar)     P=        0.01
  -0.00000004   0.00000004  -0.00000000           -0.01        0.01       -0.00
   0.00000004   0.00000032   0.00000004            0.01        0.05        0.01
  -0.00000000   0.00000004  -0.00000003           -0.00        0.01       -0.00

     kinetic stress (kbar)    194.32      0.00     -0.00
                                0.00    194.40      0.01
                               -0.00      0.01    194.31

     local   stress (kbar)  -2832.82     -0.48     -2.73
                               -0.48  -3038.26     -0.84
                               -2.73     -0.84   1916.88

     nonloc. stress (kbar)    177.90      0.00     -0.00
                                0.00    177.92      0.00
                               -0.00      0.00    177.89

     hartree stress (kbar)   1365.11      0.21      1.29
                                0.21   1463.73      0.38
                                1.29      0.38   -995.29

     exc-cor stress (kbar)     52.09      0.00     -0.00
                                0.00     52.09     -0.00
                               -0.00     -0.00     52.09

     corecor stress (kbar)   -113.15     -0.00      0.00
                               -0.00   -113.15     -0.00
                                0.00     -0.00   -113.15

     ewald   stress (kbar)   1156.51      0.27      1.45
                                0.27   1263.28      0.45
                                1.45      0.45  -1232.78

     hubbard stress (kbar)      0.00      0.00      0.00
                                0.00      0.00      0.00
                                0.00      0.00      0.00

     DFT-D   stress (kbar)      0.04      0.00     -0.00
                                0.00      0.03     -0.00
                               -0.00     -0.00      0.04

     XDM     stress (kbar)      0.00      0.00      0.00
                                0.00      0.00      0.00
                                0.00      0.00      0.00

     dft-nl  stress (kbar)      0.00      0.00      0.00
                                0.00      0.00      0.00
                                0.00      0.00      0.00

     TS-vdW  stress (kbar)      0.00      0.00      0.00
                                0.00      0.00      0.00
                                0.00      0.00      0.00


                                0.00      0.00      0.00
                                0.00      0.00      0.00


                                0.00      0.00      0.00

     Energy error            =      6.1E-07 Ry
     Gradient error          =      2.8E-04 Ry/Bohr

     number of scf cycles    =  12
     number of bfgs steps    =  11

     energy             old  =    -144.6076807891 Ry
     energy             new  =    -144.6076813981 Ry

     CASE: energy            _new < energy            _old

     new trust radius        =       0.0015045601 bohr
     new conv_thr            =       0.0000000002 Ry


ATOMIC_POSITIONS (angstrom)
Si            5.0139137642        4.6453115503       22.2908565659
Cl            5.7425863727        6.5018461963       22.6595974210
Cl            5.0477005838        4.2924315212       20.2930087049
Cl            3.1051800119        4.5217933901       22.9677695779
Cl            6.1598292673        3.2670873422       23.2425077303



     Writing output data file ./out/aiida.save/
     NEW-OLD atomic charge density approx. for the potential

     negative rho (up, down):  5.888E-02 0.000E+00

     total cpu time spent up to now is      183.0 secs

     Self-consistent Calculation

     iteration #  1     ecut=    60.00 Ry     beta= 0.40
     Davidson diagonalization with overlap

---- Real-time Memory Report at c_bands before calling an iterative solver
           626 MiB given to the printing process from OS
             0 MiB allocation reported by mallinfo(arena+hblkhd)
        323858 MiB available memory on the node where the printing process lives
------------------
     ethr =  1.00E-06,  avg # of iterations =  2.0

     Threshold (ethr) on eigenvalues was too large:
     Diagonalizing with lowered threshold

     Davidson diagonalization with overlap

---- Real-time Memory Report at c_bands before calling an iterative solver
           626 MiB given to the printing process from OS
             0 MiB allocation reported by mallinfo(arena+hblkhd)
        323849 MiB available memory on the node where the printing process lives
------------------
     ethr =  2.52E-09,  avg # of iterations =  6.0

     negative rho (up, down):  5.888E-02 0.000E+00

     total cpu time spent up to now is      184.1 secs

     total energy              =    -144.60768229 Ry
     estimated scf accuracy    <       0.00000006 Ry

     iteration #  2     ecut=    60.00 Ry     beta= 0.40
     Davidson diagonalization with overlap

---- Real-time Memory Report at c_bands before calling an iterative solver
           626 MiB given to the printing process from OS
             0 MiB allocation reported by mallinfo(arena+hblkhd)
        323848 MiB available memory on the node where the printing process lives
------------------
     ethr =  1.82E-10,  avg # of iterations =  2.0

     negative rho (up, down):  5.888E-02 0.000E+00

     total cpu time spent up to now is      184.8 secs

     total energy              =    -144.60768229 Ry
     estimated scf accuracy    <       0.00000002 Ry

     iteration #  3     ecut=    60.00 Ry     beta= 0.40
     Davidson diagonalization with overlap

---- Real-time Memory Report at c_bands before calling an iterative solver
           626 MiB given to the printing process from OS
             0 MiB allocation reported by mallinfo(arena+hblkhd)
        323848 MiB available memory on the node where the printing process lives
------------------
     ethr =  5.04E-11,  avg # of iterations =  2.0

     negative rho (up, down):  5.888E-02 0.000E+00

     total cpu time spent up to now is      185.5 secs

     total energy              =    -144.60768230 Ry
     estimated scf accuracy    <          8.9E-10 Ry

     iteration #  4     ecut=    60.00 Ry     beta= 0.40
     Davidson diagonalization with overlap

---- Real-time Memory Report at c_bands before calling an iterative solver
           626 MiB given to the printing process from OS
             0 MiB allocation reported by mallinfo(arena+hblkhd)
        323848 MiB available memory on the node where the printing process lives
------------------
     ethr =  2.78E-12,  avg # of iterations =  5.0

     negative rho (up, down):  5.888E-02 0.000E+00

     total cpu time spent up to now is      186.2 secs

     total energy              =    -144.60768230 Ry
     estimated scf accuracy    <          1.6E-10 Ry

     iteration #  5     ecut=    60.00 Ry     beta= 0.40
     Davidson diagonalization with overlap

---- Real-time Memory Report at c_bands before calling an iterative solver
           626 MiB given to the printing process from OS
             0 MiB allocation reported by mallinfo(arena+hblkhd)
        323847 MiB available memory on the node where the printing process lives
------------------
     ethr =  5.12E-13,  avg # of iterations =  1.0

     negative rho (up, down):  5.888E-02 0.000E+00

     total cpu time spent up to now is      186.9 secs

     End of self-consistent calculation

          k = 0.0000 0.0000 0.0000 ( 95217 PWs)   bands (ev):

   -22.0768 -20.8799 -20.8796 -20.8786 -13.4948 -10.8154 -10.8129 -10.8109
    -8.8679  -8.8658  -8.6210  -8.6202  -8.6123  -7.8239  -7.8221  -7.8203
    -1.6884  -0.4493  -0.4106  -0.3559

     occupation numbers 
     1.0000   1.0000   1.0000   1.0000   1.0000   1.0000   1.0000   1.0000
     1.0000   1.0000   1.0000   1.0000   1.0000   1.0000   1.0000   1.0000
     0.0000   0.0000   0.0000   0.0000

     the Fermi energy is    -4.7861 ev

!    total energy              =    -144.60768230 Ry
     estimated scf accuracy    <          1.6E-11 Ry
     smearing contrib. (-TS)   =       0.00000000 Ry
     internal energy E=F+TS    =    -144.60768230 Ry

     The total energy is F=E-TS. E is the sum of the following terms:
     one-electron contribution =    -599.54476884 Ry
     hartree contribution      =     302.54168247 Ry
     xc contribution           =     -43.45500935 Ry
     ewald contribution        =     195.85825517 Ry
     Dispersion Correction     =      -0.00784174 Ry
     one-center paw contrib.   =       0.00000000 Ry
      -> PAW hartree energy AE =       0.00000000 Ry
      -> PAW hartree energy PS =       0.00000000 Ry
      -> PAW xc energy AE      =       0.00000000 Ry
      -> PAW xc energy PS      =       0.00000000 Ry
      -> total E_H with PAW    =     302.54168247 Ry
      -> total E_XC with PAW   =     -43.45500935 Ry

     convergence has been achieved in   5 iterations

     negative rho (up, down):  5.888E-02 0.000E+00

     Forces acting on atoms (cartesian axes, Ry/au):

     atom    1 type  3   force =     0.00000664    0.00000239    0.00000286
     atom    2 type  4   force =    -0.00016667   -0.00002802   -0.00025009
     atom    3 type  4   force =     0.00001901   -0.00018941    0.00018703
     atom    4 type  4   force =     0.00014708   -0.00007037   -0.00004109
     atom    5 type  4   force =    -0.00000606    0.00028540    0.00010128
     The non-local contrib.  to forces
     atom    1 type  3   force =     0.00044604   -0.00091748    0.00036111
     atom    2 type  4   force =    -0.08134848   -0.21231569   -0.04014273
     atom    3 type  4   force =    -0.00373941    0.03959668    0.22675297
     atom    4 type  4   force =     0.21678989    0.01364581   -0.07664575
     atom    5 type  4   force =    -0.13025483    0.15725876   -0.10877443
     The ionic contribution  to forces
     atom    1 type  3   force =    -0.03211484    0.01691539   -0.02748006
     atom    2 type  4   force =     3.21431415    7.36991664    2.12889945
     atom    3 type  4   force =     0.10847588   -1.42992614  -11.63195380
     atom    4 type  4   force =    -8.33216195   -0.48085808    3.93837454
     atom    5 type  4   force =     5.04148676   -5.47604780    5.59215987
     The local contribution  to forces
     atom    1 type  3   force =     0.03171778   -0.01614413    0.02716156
     atom    2 type  4   force =    -3.13332423   -7.15836887   -2.08907114
     atom    3 type  4   force =    -0.10472675    1.39026066   11.40601864
     atom    4 type  4   force =     8.11615567    0.46718018   -3.86197812
     atom    5 type  4   force =    -4.91162383    5.31963795   -5.48360501
     The core correction contribution to forces
     atom    1 type  3   force =    -0.00004584    0.00015479   -0.00004172
     atom    2 type  4   force =    -0.00034545   -0.00070099   -0.00021108
     atom    3 type  4   force =    -0.00001592    0.00015443    0.00079718
     atom    4 type  4   force =     0.00075831    0.00006102   -0.00027565
     atom    5 type  4   force =    -0.00044052    0.00050092   -0.00034590
     The Hubbard contrib.    to forces
     atom    1 type  3   force =     0.00000000    0.00000000    0.00000000
     atom    2 type  4   force =     0.00000000    0.00000000    0.00000000
     atom    3 type  4   force =     0.00000000    0.00000000    0.00000000
     atom    4 type  4   force =     0.00000000    0.00000000    0.00000000
     atom    5 type  4   force =     0.00000000    0.00000000    0.00000000
     The SCF correction term to forces
     atom    1 type  3   force =    -0.00000022   -0.00000061   -0.00000022
     atom    2 type  4   force =    -0.00000021    0.00000064    0.00000081
     atom    3 type  4   force =    -0.00000049   -0.00000119    0.00000166
     atom    4 type  4   force =     0.00000066   -0.00000088   -0.00000119
     atom    5 type  4   force =    -0.00000160   -0.00000224   -0.00000277

     Dispersion contribution to forces:
     atom    1 type  3   force =     0.00000384   -0.00000562    0.00000184
     atom    2 type  4   force =     0.00053765    0.00144021    0.00027424
     atom    3 type  4   force =     0.00002581   -0.00027391   -0.00142997
     atom    4 type  4   force =    -0.00139539   -0.00009845    0.00048472
     atom    5 type  4   force =     0.00082808   -0.00106223    0.00066917

     Total force =     0.000531     Total SCF correction =     0.000005

     Total Dispersion Force =     0.003002


     Computing stress (Cartesian axis) and pressure


     negative rho (up, down):  5.888E-02 0.000E+00
          total   stress  (Ry/bohr**3)                   (kbar)     P=        0.01
  -0.00000004   0.00000004  -0.00000000           -0.01        0.01       -0.00
   0.00000004   0.00000032   0.00000005            0.01        0.05        0.01
  -0.00000000   0.00000005  -0.00000004           -0.00        0.01       -0.01

     kinetic stress (kbar)    194.32      0.01     -0.00
                                0.01    194.41      0.01
                               -0.00      0.01    194.31

     local   stress (kbar)  -2832.80     -0.48     -2.73
                               -0.48  -3038.18     -0.81
                               -2.73     -0.81   1916.83

     nonloc. stress (kbar)    177.89      0.00     -0.00
                                0.00    177.92      0.00
                               -0.00      0.00    177.89

     hartree stress (kbar)   1365.10      0.21      1.29
                                0.21   1463.70      0.37
                                1.29      0.37   -995.27

     exc-cor stress (kbar)     52.09      0.00     -0.00
                                0.00     52.09     -0.00
                               -0.00     -0.00     52.09

     corecor stress (kbar)   -113.15     -0.00      0.00
                               -0.00   -113.15     -0.00
                                0.00     -0.00   -113.15

     ewald   stress (kbar)   1156.50      0.27      1.44
                                0.27   1263.23      0.43
                                1.44      0.43  -1232.75

     hubbard stress (kbar)      0.00      0.00      0.00
                                0.00      0.00      0.00
                                0.00      0.00      0.00

     DFT-D   stress (kbar)      0.04      0.00     -0.00
                                0.00      0.03      0.00
                               -0.00      0.00      0.04

     XDM     stress (kbar)      0.00      0.00      0.00
                                0.00      0.00      0.00
                                0.00      0.00      0.00

     dft-nl  stress (kbar)      0.00      0.00      0.00
                                0.00      0.00      0.00
                                0.00      0.00      0.00

     TS-vdW  stress (kbar)      0.00      0.00      0.00
                                0.00      0.00      0.00
                                0.00      0.00      0.00


                                0.00      0.00      0.00
                                0.00      0.00      0.00


                                0.00      0.00      0.00

     Energy error            =      9.0E-07 Ry
     Gradient error          =      2.9E-04 Ry/Bohr

     number of scf cycles    =  13
     number of bfgs steps    =  12

     energy             old  =    -144.6076813981 Ry
     energy             new  =    -144.6076822951 Ry

     CASE: energy            _new < energy            _old

     new trust radius        =       0.0022568402 bohr
     new conv_thr            =       0.0000000002 Ry


ATOMIC_POSITIONS (angstrom)
Si            5.0138326279        4.6451593700       22.2908012551
Cl            5.7421438273        6.5020140254       22.6587059576
Cl            5.0478637375        4.2918310204       20.2929868323
Cl            3.1051316925        4.5215943697       22.9679353143
Cl            6.1602381148        3.2678712145       23.2433106406



     Writing output data file ./out/aiida.save/
     NEW-OLD atomic charge density approx. for the potential

     negative rho (up, down):  5.889E-02 0.000E+00

     total cpu time spent up to now is      194.7 secs

     Self-consistent Calculation

     iteration #  1     ecut=    60.00 Ry     beta= 0.40
     Davidson diagonalization with overlap

---- Real-time Memory Report at c_bands before calling an iterative solver
           630 MiB given to the printing process from OS
             0 MiB allocation reported by mallinfo(arena+hblkhd)
        323849 MiB available memory on the node where the printing process lives
------------------
     ethr =  1.00E-06,  avg # of iterations =  2.0

     Threshold (ethr) on eigenvalues was too large:
     Diagonalizing with lowered threshold

     Davidson diagonalization with overlap

---- Real-time Memory Report at c_bands before calling an iterative solver
           630 MiB given to the printing process from OS
             0 MiB allocation reported by mallinfo(arena+hblkhd)
        323842 MiB available memory on the node where the printing process lives
------------------
     ethr =  3.96E-09,  avg # of iterations =  6.0

     negative rho (up, down):  5.889E-02 0.000E+00

     total cpu time spent up to now is      195.8 secs

     total energy              =    -144.60768359 Ry
     estimated scf accuracy    <       0.00000013 Ry

     iteration #  2     ecut=    60.00 Ry     beta= 0.40
     Davidson diagonalization with overlap

---- Real-time Memory Report at c_bands before calling an iterative solver
           630 MiB given to the printing process from OS
             0 MiB allocation reported by mallinfo(arena+hblkhd)
        323843 MiB available memory on the node where the printing process lives
------------------
     ethr =  4.01E-10,  avg # of iterations =  2.0

     negative rho (up, down):  5.889E-02 0.000E+00

     total cpu time spent up to now is      196.5 secs

     total energy              =    -144.60768359 Ry
     estimated scf accuracy    <       0.00000004 Ry

     iteration #  3     ecut=    60.00 Ry     beta= 0.40
     Davidson diagonalization with overlap

---- Real-time Memory Report at c_bands before calling an iterative solver
           630 MiB given to the printing process from OS
             0 MiB allocation reported by mallinfo(arena+hblkhd)
        323843 MiB available memory on the node where the printing process lives
------------------
     ethr =  1.10E-10,  avg # of iterations =  2.0

     negative rho (up, down):  5.889E-02 0.000E+00

     total cpu time spent up to now is      197.2 secs

     total energy              =    -144.60768359 Ry
     estimated scf accuracy    <          1.6E-09 Ry

     iteration #  4     ecut=    60.00 Ry     beta= 0.40
     Davidson diagonalization with overlap

---- Real-time Memory Report at c_bands before calling an iterative solver
           630 MiB given to the printing process from OS
             0 MiB allocation reported by mallinfo(arena+hblkhd)
        323843 MiB available memory on the node where the printing process lives
------------------
     ethr =  4.99E-12,  avg # of iterations =  5.0

     negative rho (up, down):  5.889E-02 0.000E+00

     total cpu time spent up to now is      197.9 secs

     total energy              =    -144.60768359 Ry
     estimated scf accuracy    <          2.3E-10 Ry

     iteration #  5     ecut=    60.00 Ry     beta= 0.40
     Davidson diagonalization with overlap

---- Real-time Memory Report at c_bands before calling an iterative solver
           630 MiB given to the printing process from OS
             0 MiB allocation reported by mallinfo(arena+hblkhd)
        323843 MiB available memory on the node where the printing process lives
------------------
     ethr =  7.14E-13,  avg # of iterations =  5.0

     negative rho (up, down):  5.889E-02 0.000E+00

     total cpu time spent up to now is      198.6 secs

     End of self-consistent calculation

          k = 0.0000 0.0000 0.0000 ( 95217 PWs)   bands (ev):

   -22.0766 -20.8801 -20.8796 -20.8782 -13.4948 -10.8153 -10.8131 -10.8105
    -8.8678  -8.8657  -8.6212  -8.6202  -8.6120  -7.8242  -7.8220  -7.8201
    -1.6887  -0.4496  -0.4105  -0.3559

     occupation numbers 
     1.0000   1.0000   1.0000   1.0000   1.0000   1.0000   1.0000   1.0000
     1.0000   1.0000   1.0000   1.0000   1.0000   1.0000   1.0000   1.0000
     0.0000   0.0000   0.0000   0.0000

     the Fermi energy is    -4.7860 ev

!    total energy              =    -144.60768359 Ry
     estimated scf accuracy    <          3.3E-11 Ry
     smearing contrib. (-TS)   =       0.00000000 Ry
     internal energy E=F+TS    =    -144.60768359 Ry

     The total energy is F=E-TS. E is the sum of the following terms:
     one-electron contribution =    -599.53566038 Ry
     hartree contribution      =     302.53712733 Ry
     xc contribution           =     -43.45490431 Ry
     ewald contribution        =     195.85359583 Ry
     Dispersion Correction     =      -0.00784206 Ry
     one-center paw contrib.   =       0.00000000 Ry
      -> PAW hartree energy AE =       0.00000000 Ry
      -> PAW hartree energy PS =       0.00000000 Ry
      -> PAW xc energy AE      =       0.00000000 Ry
      -> PAW xc energy PS      =       0.00000000 Ry
      -> total E_H with PAW    =     302.53712733 Ry
      -> total E_XC with PAW   =     -43.45490431 Ry

     convergence has been achieved in   5 iterations

     negative rho (up, down):  5.889E-02 0.000E+00

     Forces acting on atoms (cartesian axes, Ry/au):

     atom    1 type  3   force =     0.00002495    0.00003401    0.00001540
     atom    2 type  4   force =    -0.00017331   -0.00001252   -0.00024357
     atom    3 type  4   force =     0.00000352   -0.00022148    0.00024389
     atom    4 type  4   force =     0.00018635   -0.00008530   -0.00007415
     atom    5 type  4   force =    -0.00004151    0.00028529    0.00005844
     The non-local contrib.  to forces
     atom    1 type  3   force =     0.00040128   -0.00100362    0.00032938
     atom    2 type  4   force =    -0.08132198   -0.21231453   -0.04002853
     atom    3 type  4   force =    -0.00379997    0.03957109    0.22682531
     atom    4 type  4   force =     0.21682923    0.01361671   -0.07672852
     atom    5 type  4   force =    -0.13036695    0.15711799   -0.10895224
     The ionic contribution  to forces
     atom    1 type  3   force =    -0.03291341    0.01544489   -0.02807182
     atom    2 type  4   force =     3.21247070    7.37161805    2.12393141
     atom    3 type  4   force =     0.10908290   -1.43267254  -11.63078931
     atom    4 type  4   force =    -8.33138168   -0.48156407    3.93879775
     atom    5 type  4   force =     5.04274150   -5.47282633    5.59613198
     The local contribution  to forces
     atom    1 type  3   force =     0.03257251   -0.01456944    0.02779231
     atom    2 type  4   force =    -3.13151563   -7.16005907   -2.08421429
     atom    3 type  4   force =    -0.10528757    1.39300094   11.40483666
     atom    4 type  4   force =     8.11537359    0.46790026   -3.86235055
     atom    5 type  4   force =    -4.91280008    5.31655996   -5.48743967
     The core correction contribution to forces
     atom    1 type  3   force =    -0.00003803    0.00017002   -0.00003621
     atom    2 type  4   force =    -0.00034475   -0.00070217   -0.00021144
     atom    3 type  4   force =    -0.00001493    0.00015686    0.00079321
     atom    4 type  4   force =     0.00075561    0.00006203   -0.00027339
     atom    5 type  4   force =    -0.00043812    0.00050094   -0.00034291
     The Hubbard contrib.    to forces
     atom    1 type  3   force =     0.00000000    0.00000000    0.00000000
     atom    2 type  4   force =     0.00000000    0.00000000    0.00000000
     atom    3 type  4   force =     0.00000000    0.00000000    0.00000000
     atom    4 type  4   force =     0.00000000    0.00000000    0.00000000
     atom    5 type  4   force =     0.00000000    0.00000000    0.00000000
     The SCF correction term to forces
     atom    1 type  3   force =    -0.00000109   -0.00000219   -0.00000046
     atom    2 type  4   force =     0.00000106    0.00000313    0.00000463
     atom    3 type  4   force =    -0.00000220   -0.00000211    0.00000546
     atom    4 type  4   force =     0.00000376   -0.00000131   -0.00000340
     atom    5 type  4   force =    -0.00000505   -0.00000549   -0.00000714

     Dispersion contribution to forces:
     atom    1 type  3   force =     0.00000384   -0.00000564    0.00000183
     atom    2 type  4   force =     0.00053742    0.00144206    0.00027429
     atom    3 type  4   force =     0.00002542   -0.00027572   -0.00142779
     atom    4 type  4   force =    -0.00139401   -0.00009892    0.00048360
     atom    5 type  4   force =     0.00082733   -0.00106178    0.00066807

     Total force =     0.000578     Total SCF correction =     0.000015

     Total Dispersion Force =     0.003001


     Computing stress (Cartesian axis) and pressure


     negative rho (up, down):  5.889E-02 0.000E+00
          total   stress  (Ry/bohr**3)                   (kbar)     P=        0.01
  -0.00000005   0.00000005   0.00000000           -0.01        0.01        0.00
   0.00000005   0.00000032   0.00000005            0.01        0.05        0.01
   0.00000000   0.00000005  -0.00000006            0.00        0.01       -0.01

     kinetic stress (kbar)    194.32      0.01     -0.00
                                0.01    194.41      0.02
                               -0.00      0.02    194.30

     local   stress (kbar)  -2832.78     -0.49     -2.72
                               -0.49  -3038.07     -0.77
                               -2.72     -0.77   1916.76

     nonloc. stress (kbar)    177.89      0.00     -0.00
                                0.00    177.92      0.00
                               -0.00      0.00    177.89

     hartree stress (kbar)   1365.09      0.22      1.29
                                0.22   1463.65      0.36
                                1.29      0.36   -995.24

     exc-cor stress (kbar)     52.09      0.00     -0.00
                                0.00     52.09     -0.00
                               -0.00     -0.00     52.09

     corecor stress (kbar)   -113.15     -0.00      0.00
                               -0.00   -113.15     -0.00
                                0.00     -0.00   -113.15

     ewald   stress (kbar)   1156.50      0.28      1.44
                                0.28   1263.17      0.40
                                1.44      0.40  -1232.71

     hubbard stress (kbar)      0.00      0.00      0.00
                                0.00      0.00      0.00
                                0.00      0.00      0.00

     DFT-D   stress (kbar)      0.04      0.00     -0.00
                                0.00      0.03      0.00
                               -0.00      0.00      0.04

     XDM     stress (kbar)      0.00      0.00      0.00
                                0.00      0.00      0.00
                                0.00      0.00      0.00

     dft-nl  stress (kbar)      0.00      0.00      0.00
                                0.00      0.00      0.00
                                0.00      0.00      0.00

     TS-vdW  stress (kbar)      0.00      0.00      0.00
                                0.00      0.00      0.00
                                0.00      0.00      0.00


                                0.00      0.00      0.00
                                0.00      0.00      0.00


                                0.00      0.00      0.00

     Energy error            =      1.3E-06 Ry
     Gradient error          =      2.9E-04 Ry/Bohr

     number of scf cycles    =  14
     number of bfgs steps    =  13

     energy             old  =    -144.6076822951 Ry
     energy             new  =    -144.6076835947 Ry

     CASE: energy            _new < energy            _old

     new trust radius        =       0.0033852602 bohr
     new conv_thr            =       0.0000000002 Ry


ATOMIC_POSITIONS (angstrom)
Si            5.0137197979        4.6449468755       22.2907245299
Cl            5.7414683461        6.5022803374       22.6573556255
Cl            5.0481028475        4.2908991399       20.2929834672
Cl            3.1050782313        4.5212833042       22.9681691188
Cl            6.1608407772        3.2690603430       23.2445072586



     Writing output data file ./out/aiida.save/
     NEW-OLD atomic charge density approx. for the potential

     negative rho (up, down):  5.891E-02 0.000E+00

     total cpu time spent up to now is      206.4 secs

     Self-consistent Calculation

     iteration #  1     ecut=    60.00 Ry     beta= 0.40
     Davidson diagonalization with overlap

---- Real-time Memory Report at c_bands before calling an iterative solver
           631 MiB given to the printing process from OS
             0 MiB allocation reported by mallinfo(arena+hblkhd)
        323847 MiB available memory on the node where the printing process lives
------------------
     ethr =  1.00E-06,  avg # of iterations =  3.0

     Threshold (ethr) on eigenvalues was too large:
     Diagonalizing with lowered threshold

     Davidson diagonalization with overlap

---- Real-time Memory Report at c_bands before calling an iterative solver
           631 MiB given to the printing process from OS
             0 MiB allocation reported by mallinfo(arena+hblkhd)
        323841 MiB available memory on the node where the printing process lives
------------------
     ethr =  5.54E-09,  avg # of iterations =  6.0

     negative rho (up, down):  5.891E-02 0.000E+00

     total cpu time spent up to now is      209.0 secs

     total energy              =    -144.60768544 Ry
     estimated scf accuracy    <       0.00000028 Ry

     iteration #  2     ecut=    60.00 Ry     beta= 0.40
     Davidson diagonalization with overlap

---- Real-time Memory Report at c_bands before calling an iterative solver
           631 MiB given to the printing process from OS
             0 MiB allocation reported by mallinfo(arena+hblkhd)
        323841 MiB available memory on the node where the printing process lives
------------------
     ethr =  8.90E-10,  avg # of iterations =  1.0

     negative rho (up, down):  5.891E-02 0.000E+00

     total cpu time spent up to now is      209.6 secs

     total energy              =    -144.60768543 Ry
     estimated scf accuracy    <       0.00000008 Ry

     iteration #  3     ecut=    60.00 Ry     beta= 0.40
     Davidson diagonalization with overlap

---- Real-time Memory Report at c_bands before calling an iterative solver
           631 MiB given to the printing process from OS
             0 MiB allocation reported by mallinfo(arena+hblkhd)
        323840 MiB available memory on the node where the printing process lives
------------------
     ethr =  2.45E-10,  avg # of iterations =  2.0

     negative rho (up, down):  5.891E-02 0.000E+00

     total cpu time spent up to now is      210.3 secs

     total energy              =    -144.60768544 Ry
     estimated scf accuracy    <          3.2E-09 Ry

     iteration #  4     ecut=    60.00 Ry     beta= 0.40
     Davidson diagonalization with overlap

---- Real-time Memory Report at c_bands before calling an iterative solver
           631 MiB given to the printing process from OS
             0 MiB allocation reported by mallinfo(arena+hblkhd)
        323839 MiB available memory on the node where the printing process lives
------------------
     ethr =  9.87E-12,  avg # of iterations =  4.0

     negative rho (up, down):  5.890E-02 0.000E+00

     total cpu time spent up to now is      211.0 secs

     total energy              =    -144.60768544 Ry
     estimated scf accuracy    <          5.3E-10 Ry

     iteration #  5     ecut=    60.00 Ry     beta= 0.40
     Davidson diagonalization with overlap

---- Real-time Memory Report at c_bands before calling an iterative solver
           631 MiB given to the printing process from OS
             0 MiB allocation reported by mallinfo(arena+hblkhd)
        323839 MiB available memory on the node where the printing process lives
------------------
     ethr =  1.65E-12,  avg # of iterations =  2.0

     negative rho (up, down):  5.890E-02 0.000E+00

     total cpu time spent up to now is      211.7 secs

     End of self-consistent calculation

          k = 0.0000 0.0000 0.0000 ( 95217 PWs)   bands (ev):

   -22.0764 -20.8804 -20.8797 -20.8775 -13.4948 -10.8152 -10.8133 -10.8101
    -8.8678  -8.8656  -8.6213  -8.6203  -8.6116  -7.8247  -7.8218  -7.8199
    -1.6890  -0.4499  -0.4103  -0.3558

     occupation numbers 
     1.0000   1.0000   1.0000   1.0000   1.0000   1.0000   1.0000   1.0000
     1.0000   1.0000   1.0000   1.0000   1.0000   1.0000   1.0000   1.0000
     0.0000   0.0000   0.0000   0.0000

     the Fermi energy is    -4.7859 ev

!    total energy              =    -144.60768544 Ry
     estimated scf accuracy    <          8.2E-11 Ry
     smearing contrib. (-TS)   =       0.00000000 Ry
     internal energy E=F+TS    =    -144.60768544 Ry

     The total energy is F=E-TS. E is the sum of the following terms:
     one-electron contribution =    -599.52423531 Ry
     hartree contribution      =     302.53141556 Ry
     xc contribution           =     -43.45478400 Ry
     ewald contribution        =     195.84776070 Ry
     Dispersion Correction     =      -0.00784239 Ry
     one-center paw contrib.   =       0.00000000 Ry
      -> PAW hartree energy AE =       0.00000000 Ry
      -> PAW hartree energy PS =       0.00000000 Ry
      -> PAW xc energy AE      =       0.00000000 Ry
      -> PAW xc energy PS      =       0.00000000 Ry
      -> total E_H with PAW    =     302.53141556 Ry
      -> total E_XC with PAW   =     -43.45478400 Ry

     convergence has been achieved in   5 iterations

     negative rho (up, down):  5.890E-02 0.000E+00

     Forces acting on atoms (cartesian axes, Ry/au):

     atom    1 type  3   force =     0.00005017    0.00007802    0.00003216
     atom    2 type  4   force =    -0.00017970    0.00001842   -0.00022971
     atom    3 type  4   force =    -0.00001774   -0.00026790    0.00031702
     atom    4 type  4   force =     0.00023388   -0.00010499   -0.00011905
     atom    5 type  4   force =    -0.00008661    0.00027644   -0.00000042
     The non-local contrib.  to forces
     atom    1 type  3   force =     0.00033947   -0.00112369    0.00028543
     atom    2 type  4   force =    -0.08127690   -0.21231045   -0.03985720
     atom    3 type  4   force =    -0.00388486    0.03954447    0.22691355
     atom    4 type  4   force =     0.21687254    0.01358125   -0.07684137
     atom    5 type  4   force =    -0.13051911    0.15690844   -0.10920211
     The ionic contribution  to forces
     atom    1 type  3   force =    -0.03402055    0.01339579   -0.02889095
     atom    2 type  4   force =     3.20968481    7.37426222    2.11641078
     atom    3 type  4   force =     0.10998837   -1.43692505  -11.62914991
     atom    4 type  4   force =    -8.33037361   -0.48267012    3.93945315
     atom    5 type  4   force =     5.04472098   -5.46806285    5.60217693
     The local contribution  to forces
     atom    1 type  3   force =     0.03375631   -0.01237558    0.02866561
     atom    2 type  4   force =    -3.12878276   -7.16267772   -2.07685190
     atom    3 type  4   force =    -0.10612941    1.39723423   11.40317909
     atom    4 type  4   force =     8.11436867    0.46902345   -3.86293539
     atom    5 type  4   force =    -4.91467010    5.31199612   -5.49328989
     The core correction contribution to forces
     atom    1 type  3   force =    -0.00002725    0.00019129   -0.00002857
     atom    2 type  4   force =    -0.00034390   -0.00070422   -0.00021187
     atom    3 type  4   force =    -0.00001357    0.00016033    0.00078831
     atom    4 type  4   force =     0.00075248    0.00006337   -0.00027040
     atom    5 type  4   force =    -0.00043524    0.00050107   -0.00033921
     The Hubbard contrib.    to forces
     atom    1 type  3   force =     0.00000000    0.00000000    0.00000000
     atom    2 type  4   force =     0.00000000    0.00000000    0.00000000
     atom    3 type  4   force =     0.00000000    0.00000000    0.00000000
     atom    4 type  4   force =     0.00000000    0.00000000    0.00000000
     atom    5 type  4   force =     0.00000000    0.00000000    0.00000000
     The SCF correction term to forces
     atom    1 type  3   force =    -0.00000158   -0.00000402   -0.00000147
     atom    2 type  4   force =     0.00000201    0.00000384    0.00000584
     atom    3 type  4   force =    -0.00000309   -0.00000339    0.00001061
     atom    4 type  4   force =     0.00000614   -0.00000327   -0.00000743
     atom    5 type  4   force =    -0.00000951   -0.00000503   -0.00001305

     Dispersion contribution to forces:
     atom    1 type  3   force =     0.00000383   -0.00000568    0.00000183
     atom    2 type  4   force =     0.00053711    0.00144486    0.00027435
     atom    3 type  4   force =     0.00002489   -0.00027839   -0.00142491
     atom    4 type  4   force =    -0.00139228   -0.00009958    0.00048211
     atom    5 type  4   force =     0.00082645   -0.00106121    0.00066662

     Total force =     0.000657     Total SCF correction =     0.000024

     Total Dispersion Force =     0.002999


     Computing stress (Cartesian axis) and pressure


     negative rho (up, down):  5.890E-02 0.000E+00
          total   stress  (Ry/bohr**3)                   (kbar)     P=        0.01
  -0.00000006   0.00000005   0.00000000           -0.01        0.01        0.00
   0.00000005   0.00000033   0.00000006            0.01        0.05        0.01
   0.00000000   0.00000006  -0.00000007            0.00        0.01       -0.01

     kinetic stress (kbar)    194.31      0.01     -0.00
                                0.01    194.42      0.02
                               -0.00      0.02    194.30

     local   stress (kbar)  -2832.76     -0.51     -2.72
                               -0.51  -3037.92     -0.72
                               -2.72     -0.72   1916.66

     nonloc. stress (kbar)    177.89      0.00     -0.00
                                0.00    177.92      0.00
                               -0.00      0.00    177.89

     hartree stress (kbar)   1365.08      0.22      1.28
                                0.22   1463.58      0.34
                                1.28      0.34   -995.20

     exc-cor stress (kbar)     52.09      0.00     -0.00
                                0.00     52.09     -0.00
                               -0.00     -0.00     52.09

     corecor stress (kbar)   -113.15     -0.00      0.00
                               -0.00   -113.15     -0.00
                                0.00     -0.00   -113.15

     ewald   stress (kbar)   1156.49      0.29      1.43
                                0.29   1263.08      0.37
                                1.43      0.37  -1232.65

     hubbard stress (kbar)      0.00      0.00      0.00
                                0.00      0.00      0.00
                                0.00      0.00      0.00

     DFT-D   stress (kbar)      0.04      0.00     -0.00
                                0.00      0.03      0.00
                               -0.00      0.00      0.04

     XDM     stress (kbar)      0.00      0.00      0.00
                                0.00      0.00      0.00
                                0.00      0.00      0.00

     dft-nl  stress (kbar)      0.00      0.00      0.00
                                0.00      0.00      0.00
                                0.00      0.00      0.00

     TS-vdW  stress (kbar)      0.00      0.00      0.00
                                0.00      0.00      0.00
                                0.00      0.00      0.00


                                0.00      0.00      0.00
                                0.00      0.00      0.00


                                0.00      0.00      0.00

     Energy error            =      1.8E-06 Ry
     Gradient error          =      3.2E-04 Ry/Bohr

     number of scf cycles    =  15
     number of bfgs steps    =  14

     energy             old  =    -144.6076835947 Ry
     energy             new  =    -144.6076854369 Ry

     CASE: energy            _new < energy            _old

     new trust radius        =       0.0050778903 bohr
     new conv_thr            =       0.0000000002 Ry


ATOMIC_POSITIONS (angstrom)
Si            5.0135634520        4.6446512180       22.2906180605
Cl            5.7404385401        6.5027086716       22.6553119365
Cl            5.0484536955        4.2894521052       20.2930187577
Cl            3.1050216945        4.5207983681       22.9684985769
Cl            6.1617326178        3.2708596371       23.2462926683



     Writing output data file ./out/aiida.save/
     NEW-OLD atomic charge density approx. for the potential

     negative rho (up, down):  5.893E-02 0.000E+00

     total cpu time spent up to now is      219.4 secs

     Self-consistent Calculation

     iteration #  1     ecut=    60.00 Ry     beta= 0.40
     Davidson diagonalization with overlap

---- Real-time Memory Report at c_bands before calling an iterative solver
           633 MiB given to the printing process from OS
             0 MiB allocation reported by mallinfo(arena+hblkhd)
        323844 MiB available memory on the node where the printing process lives
------------------
     ethr =  1.00E-06,  avg # of iterations =  3.0

     Threshold (ethr) on eigenvalues was too large:
     Diagonalizing with lowered threshold

     Davidson diagonalization with overlap

---- Real-time Memory Report at c_bands before calling an iterative solver
           633 MiB given to the printing process from OS
             0 MiB allocation reported by mallinfo(arena+hblkhd)
        323836 MiB available memory on the node where the printing process lives
------------------
     ethr =  7.18E-09,  avg # of iterations =  7.0

     negative rho (up, down):  5.893E-02 0.000E+00

     total cpu time spent up to now is      220.6 secs

     total energy              =    -144.60768801 Ry
     estimated scf accuracy    <       0.00000063 Ry

     iteration #  2     ecut=    60.00 Ry     beta= 0.40
     Davidson diagonalization with overlap

---- Real-time Memory Report at c_bands before calling an iterative solver
           633 MiB given to the printing process from OS
             0 MiB allocation reported by mallinfo(arena+hblkhd)
        323818 MiB available memory on the node where the printing process lives
------------------
     ethr =  1.97E-09,  avg # of iterations =  1.0

     negative rho (up, down):  5.893E-02 0.000E+00

     total cpu time spent up to now is      221.3 secs

     total energy              =    -144.60768799 Ry
     estimated scf accuracy    <       0.00000018 Ry

     iteration #  3     ecut=    60.00 Ry     beta= 0.40
     Davidson diagonalization with overlap

---- Real-time Memory Report at c_bands before calling an iterative solver
           633 MiB given to the printing process from OS
             0 MiB allocation reported by mallinfo(arena+hblkhd)
        323832 MiB available memory on the node where the printing process lives
------------------
     ethr =  5.54E-10,  avg # of iterations =  2.0

     negative rho (up, down):  5.893E-02 0.000E+00

     total cpu time spent up to now is      222.0 secs

     total energy              =    -144.60768800 Ry
     estimated scf accuracy    <          6.2E-09 Ry

     iteration #  4     ecut=    60.00 Ry     beta= 0.40
     Davidson diagonalization with overlap

---- Real-time Memory Report at c_bands before calling an iterative solver
           633 MiB given to the printing process from OS
             0 MiB allocation reported by mallinfo(arena+hblkhd)
        323832 MiB available memory on the node where the printing process lives
------------------
     ethr =  1.92E-11,  avg # of iterations =  5.0

     negative rho (up, down):  5.893E-02 0.000E+00

     total cpu time spent up to now is      222.7 secs

     total energy              =    -144.60768800 Ry
     estimated scf accuracy    <          5.4E-10 Ry

     iteration #  5     ecut=    60.00 Ry     beta= 0.40
     Davidson diagonalization with overlap

---- Real-time Memory Report at c_bands before calling an iterative solver
           633 MiB given to the printing process from OS
             0 MiB allocation reported by mallinfo(arena+hblkhd)
        323832 MiB available memory on the node where the printing process lives
------------------
     ethr =  1.68E-12,  avg # of iterations =  2.0

     negative rho (up, down):  5.893E-02 0.000E+00

     total cpu time spent up to now is      223.4 secs

     End of self-consistent calculation

          k = 0.0000 0.0000 0.0000 ( 95217 PWs)   bands (ev):

   -22.0761 -20.8809 -20.8798 -20.8766 -13.4948 -10.8152 -10.8136 -10.8094
    -8.8678  -8.8653  -8.6216  -8.6205  -8.6110  -7.8253  -7.8216  -7.8196
    -1.6894  -0.4504  -0.4100  -0.3556

     occupation numbers 
     1.0000   1.0000   1.0000   1.0000   1.0000   1.0000   1.0000   1.0000
     1.0000   1.0000   1.0000   1.0000   1.0000   1.0000   1.0000   1.0000
     0.0000   0.0000   0.0000   0.0000

     the Fermi energy is    -4.7857 ev

!    total energy              =    -144.60768800 Ry
     estimated scf accuracy    <          8.0E-11 Ry
     smearing contrib. (-TS)   =       0.00000000 Ry
     internal energy E=F+TS    =    -144.60768800 Ry

     The total energy is F=E-TS. E is the sum of the following terms:
     one-electron contribution =    -599.50966202 Ry
     hartree contribution      =     302.52414862 Ry
     xc contribution           =     -43.45464278 Ry
     ewald contribution        =     195.84031090 Ry
     Dispersion Correction     =      -0.00784272 Ry
     one-center paw contrib.   =       0.00000000 Ry
      -> PAW hartree energy AE =       0.00000000 Ry
      -> PAW hartree energy PS =       0.00000000 Ry
      -> PAW xc energy AE      =       0.00000000 Ry
      -> PAW xc energy PS      =       0.00000000 Ry
      -> total E_H with PAW    =     302.52414862 Ry
      -> total E_XC with PAW   =     -43.45464278 Ry

     convergence has been achieved in   5 iterations

     negative rho (up, down):  5.893E-02 0.000E+00

     Forces acting on atoms (cartesian axes, Ry/au):

     atom    1 type  3   force =     0.00008698    0.00014012    0.00005738
     atom    2 type  4   force =    -0.00018692    0.00006774   -0.00020906
     atom    3 type  4   force =    -0.00004634   -0.00033689    0.00040676
     atom    4 type  4   force =     0.00029016   -0.00013226   -0.00017609
     atom    5 type  4   force =    -0.00014388    0.00026130   -0.00007899
     The non-local contrib.  to forces
     atom    1 type  3   force =     0.00025601   -0.00128966    0.00022599
     atom    2 type  4   force =    -0.08120382   -0.21230536   -0.03959988
     atom    3 type  4   force =    -0.00400290    0.03951468    0.22701898
     atom    4 type  4   force =     0.21691914    0.01353591   -0.07699119
     atom    5 type  4   force =    -0.13072785    0.15659423   -0.10955771
     The ionic contribution  to forces
     atom    1 type  3   force =    -0.03553276    0.01056278   -0.03000731
     atom    2 type  4   force =     3.20544346    7.37829145    2.10501622
     atom    3 type  4   force =     0.11134350   -1.44349632  -11.62680494
     atom    4 type  4   force =    -8.32905228   -0.48439328    3.94045115
     atom    5 type  4   force =     5.04779808   -5.46096462    5.61134488
     The local contribution  to forces
     atom    1 type  3   force =     0.03537358   -0.00934592    0.02985489
     atom    2 type  4   force =    -3.12462408   -7.16666773   -2.06569381
     atom    3 type  4   force =    -0.10739743    1.40376620   11.40083149
     atom    4 type  4   force =     8.11306559    0.47076314   -3.86384864
     atom    5 type  4   force =    -4.91760375    5.30519495   -5.50219319
     The core correction contribution to forces
     atom    1 type  3   force =    -0.00001269    0.00022059   -0.00001828
     atom    2 type  4   force =    -0.00034271   -0.00070747   -0.00021236
     atom    3 type  4   force =    -0.00001181    0.00016575    0.00078230
     atom    4 type  4   force =     0.00074888    0.00006550   -0.00026679
     atom    5 type  4   force =    -0.00043179    0.00050159   -0.00033449
     The Hubbard contrib.    to forces
     atom    1 type  3   force =     0.00000000    0.00000000    0.00000000
     atom    2 type  4   force =     0.00000000    0.00000000    0.00000000
     atom    3 type  4   force =     0.00000000    0.00000000    0.00000000
     atom    4 type  4   force =     0.00000000    0.00000000    0.00000000
     atom    5 type  4   force =     0.00000000    0.00000000    0.00000000
     The SCF correction term to forces
     atom    1 type  3   force =    -0.00000054   -0.00000208    0.00000011
     atom    2 type  4   force =     0.00000404    0.00000777    0.00000620
     atom    3 type  4   force =    -0.00000146   -0.00000501   -0.00000015
     atom    4 type  4   force =    -0.00000067   -0.00000318   -0.00000089
     atom    5 type  4   force =    -0.00000354   -0.00000455   -0.00000340

     Dispersion contribution to forces:
     atom    1 type  3   force =     0.00000381   -0.00000573    0.00000182
     atom    2 type  4   force =     0.00053663    0.00144894    0.00027441
     atom    3 type  4   force =     0.00002421   -0.00028231   -0.00142108
     atom    4 type  4   force =    -0.00139007   -0.00010047    0.00048011
     atom    5 type  4   force =     0.00082542   -0.00106043    0.00066475

     Total force =     0.000789     Total SCF correction =     0.000014

     Total Dispersion Force =     0.002997


     Computing stress (Cartesian axis) and pressure


     negative rho (up, down):  5.893E-02 0.000E+00
          total   stress  (Ry/bohr**3)                   (kbar)     P=        0.01
  -0.00000008   0.00000006   0.00000001           -0.01        0.01        0.00
   0.00000006   0.00000034   0.00000007            0.01        0.05        0.01
   0.00000001   0.00000007  -0.00000010            0.00        0.01       -0.01

     kinetic stress (kbar)    194.31      0.01      0.00
                                0.01    194.42      0.03
                                0.00      0.03    194.29

     local   stress (kbar)  -2832.74     -0.54     -2.70
                               -0.54  -3037.72     -0.64
                               -2.70     -0.64   1916.52

     nonloc. stress (kbar)    177.89      0.00     -0.00
                                0.00    177.92      0.00
                               -0.00      0.00    177.89

     hartree stress (kbar)   1365.06      0.23      1.28
                                0.23   1463.49      0.31
                                1.28      0.31   -995.13

     exc-cor stress (kbar)     52.09      0.00     -0.00
                                0.00     52.09     -0.00
                               -0.00     -0.00     52.09

     corecor stress (kbar)   -113.15     -0.00      0.00
                               -0.00   -113.15     -0.00
                                0.00     -0.00   -113.15

     ewald   stress (kbar)   1156.48      0.30      1.43
                                0.30   1262.96      0.31
                                1.43      0.31  -1232.56

     hubbard stress (kbar)      0.00      0.00      0.00
                                0.00      0.00      0.00
                                0.00      0.00      0.00

     DFT-D   stress (kbar)      0.04      0.00     -0.00
                                0.00      0.03      0.00
                               -0.00      0.00      0.04

     XDM     stress (kbar)      0.00      0.00      0.00
                                0.00      0.00      0.00
                                0.00      0.00      0.00

     dft-nl  stress (kbar)      0.00      0.00      0.00
                                0.00      0.00      0.00
                                0.00      0.00      0.00

     TS-vdW  stress (kbar)      0.00      0.00      0.00
                                0.00      0.00      0.00
                                0.00      0.00      0.00


                                0.00      0.00      0.00
                                0.00      0.00      0.00


                                0.00      0.00      0.00

     Energy error            =      2.6E-06 Ry
     Gradient error          =      4.1E-04 Ry/Bohr

     number of scf cycles    =  16
     number of bfgs steps    =  15

     energy             old  =    -144.6076854369 Ry
     energy             new  =    -144.6076880026 Ry

     CASE: energy            _new < energy            _old

     new trust radius        =       0.0076168355 bohr
     new conv_thr            =       0.0000000002 Ry


ATOMIC_POSITIONS (angstrom)
Si            5.0133498733        4.6442431391       22.2904729559
Cl            5.7388710557        6.5033989309       22.6522216348
Cl            5.0489687411        4.2872054250       20.2931226161
Cl            3.1049646567        4.5200438729       22.9689650213
Cl            6.1630556732        3.2735786321       23.2489577719



     Writing output data file ./out/aiida.save/
     NEW-OLD atomic charge density approx. for the potential

     negative rho (up, down):  5.893E-02 0.000E+00

     total cpu time spent up to now is      231.1 secs

     Self-consistent Calculation

     iteration #  1     ecut=    60.00 Ry     beta= 0.40
     Davidson diagonalization with overlap

---- Real-time Memory Report at c_bands before calling an iterative solver
           636 MiB given to the printing process from OS
             0 MiB allocation reported by mallinfo(arena+hblkhd)
        323833 MiB available memory on the node where the printing process lives
------------------
     ethr =  1.00E-06,  avg # of iterations =  5.0

     Threshold (ethr) on eigenvalues was too large:
     Diagonalizing with lowered threshold

     Davidson diagonalization with overlap

---- Real-time Memory Report at c_bands before calling an iterative solver
           636 MiB given to the printing process from OS
             0 MiB allocation reported by mallinfo(arena+hblkhd)
        323827 MiB available memory on the node where the printing process lives
------------------
     ethr =  1.09E-08,  avg # of iterations =  6.0

     negative rho (up, down):  5.893E-02 0.000E+00

     total cpu time spent up to now is      232.3 secs

     total energy              =    -144.60769149 Ry
     estimated scf accuracy    <       0.00000143 Ry

     iteration #  2     ecut=    60.00 Ry     beta= 0.40
     Davidson diagonalization with overlap

---- Real-time Memory Report at c_bands before calling an iterative solver
           636 MiB given to the printing process from OS
             0 MiB allocation reported by mallinfo(arena+hblkhd)
        323822 MiB available memory on the node where the printing process lives
------------------
     ethr =  4.47E-09,  avg # of iterations =  1.0

     negative rho (up, down):  5.894E-02 0.000E+00

     total cpu time spent up to now is      233.0 secs

     total energy              =    -144.60769144 Ry
     estimated scf accuracy    <       0.00000040 Ry

     iteration #  3     ecut=    60.00 Ry     beta= 0.40
     Davidson diagonalization with overlap

---- Real-time Memory Report at c_bands before calling an iterative solver
           636 MiB given to the printing process from OS
             0 MiB allocation reported by mallinfo(arena+hblkhd)
        323821 MiB available memory on the node where the printing process lives
------------------
     ethr =  1.24E-09,  avg # of iterations =  2.0

     negative rho (up, down):  5.894E-02 0.000E+00

     total cpu time spent up to now is      233.6 secs

     total energy              =    -144.60769147 Ry
     estimated scf accuracy    <       0.00000001 Ry

     iteration #  4     ecut=    60.00 Ry     beta= 0.40
     Davidson diagonalization with overlap

---- Real-time Memory Report at c_bands before calling an iterative solver
           636 MiB given to the printing process from OS
             0 MiB allocation reported by mallinfo(arena+hblkhd)
        323821 MiB available memory on the node where the printing process lives
------------------
     ethr =  4.62E-11,  avg # of iterations =  5.0

     negative rho (up, down):  5.893E-02 0.000E+00

     total cpu time spent up to now is      234.4 secs

     total energy              =    -144.60769148 Ry
     estimated scf accuracy    <          1.5E-09 Ry

     iteration #  5     ecut=    60.00 Ry     beta= 0.40
     Davidson diagonalization with overlap

---- Real-time Memory Report at c_bands before calling an iterative solver
           636 MiB given to the printing process from OS
             0 MiB allocation reported by mallinfo(arena+hblkhd)
        323820 MiB available memory on the node where the printing process lives
------------------
     ethr =  4.59E-12,  avg # of iterations =  2.0

     negative rho (up, down):  5.893E-02 0.000E+00

     total cpu time spent up to now is      235.1 secs

     total energy              =    -144.60769148 Ry
     estimated scf accuracy    <          2.1E-10 Ry

     iteration #  6     ecut=    60.00 Ry     beta= 0.40
     Davidson diagonalization with overlap

---- Real-time Memory Report at c_bands before calling an iterative solver
           636 MiB given to the printing process from OS
             0 MiB allocation reported by mallinfo(arena+hblkhd)
        323824 MiB available memory on the node where the printing process lives
------------------
     ethr =  6.45E-13,  avg # of iterations =  4.0

     negative rho (up, down):  5.893E-02 0.000E+00

     total cpu time spent up to now is      235.8 secs

     End of self-consistent calculation

          k = 0.0000 0.0000 0.0000 ( 95217 PWs)   bands (ev):

   -22.0758 -20.8816 -20.8800 -20.8754 -13.4947 -10.8153 -10.8139 -10.8085
    -8.8679  -8.8649  -8.6220  -8.6206  -8.6103  -7.8261  -7.8212  -7.8191
    -1.6898  -0.4511  -0.4094  -0.3554

     occupation numbers 
     1.0000   1.0000   1.0000   1.0000   1.0000   1.0000   1.0000   1.0000
     1.0000   1.0000   1.0000   1.0000   1.0000   1.0000   1.0000   1.0000
     0.0000   0.0000   0.0000   0.0000

     the Fermi energy is    -4.7855 ev

!    total energy              =    -144.60769148 Ry
     estimated scf accuracy    <          3.9E-11 Ry
     smearing contrib. (-TS)   =       0.00000000 Ry
     internal energy E=F+TS    =    -144.60769148 Ry

     The total energy is F=E-TS. E is the sum of the following terms:
     one-electron contribution =    -599.49034942 Ry
     hartree contribution      =     302.51450563 Ry
     xc contribution           =     -43.45446668 Ry
     ewald contribution        =     195.83046204 Ry
     Dispersion Correction     =      -0.00784305 Ry
     one-center paw contrib.   =       0.00000000 Ry
      -> PAW hartree energy AE =       0.00000000 Ry
      -> PAW hartree energy PS =       0.00000000 Ry
      -> PAW xc energy AE      =       0.00000000 Ry
      -> PAW xc energy PS      =       0.00000000 Ry
      -> total E_H with PAW    =     302.51450563 Ry
      -> total E_XC with PAW   =     -43.45446668 Ry

     convergence has been achieved in   6 iterations

     negative rho (up, down):  5.893E-02 0.000E+00

     Forces acting on atoms (cartesian axes, Ry/au):

     atom    1 type  3   force =     0.00013840    0.00022649    0.00009109
     atom    2 type  4   force =    -0.00019613    0.00013964   -0.00018010
     atom    3 type  4   force =    -0.00008544   -0.00043341    0.00052771
     atom    4 type  4   force =     0.00036118   -0.00016823   -0.00025407
     atom    5 type  4   force =    -0.00021801    0.00023550   -0.00018464
     The non-local contrib.  to forces
     atom    1 type  3   force =     0.00014399   -0.00151838    0.00014495
     atom    2 type  4   force =    -0.08108897   -0.21230800   -0.03920981
     atom    3 type  4   force =    -0.00416534    0.03950465    0.22715208
     atom    4 type  4   force =     0.21697463    0.01349249   -0.07719620
     atom    5 type  4   force =    -0.13101588    0.15612934   -0.11006954
     The ionic contribution  to forces
     atom    1 type  3   force =    -0.03758294    0.00666974   -0.03152427
     atom    2 type  4   force =     3.19895728    7.38435443    2.08774170
     atom    3 type  4   force =     0.11336736   -1.45362293  -11.62336364
     atom    4 type  4   force =    -8.32726968   -0.48706809    3.94194481
     atom    5 type  4   force =     5.05252799   -5.45033316    5.62520140
     The local contribution  to forces
     atom    1 type  3   force =     0.03756510   -0.00518316    0.03147137
     atom    2 type  4   force =    -3.11825972   -7.17264686   -2.04877288
     atom    3 type  4   force =    -0.10930370    1.41379576   11.39738389
     atom    4 type  4   force =     8.11130106    0.47343807   -3.86522203
     atom    5 type  4   force =    -4.92213183    5.29499387   -5.51565591
     The core correction contribution to forces
     atom    1 type  3   force =     0.00000682    0.00026102   -0.00000426
     atom    2 type  4   force =    -0.00034089   -0.00071206   -0.00021299
     atom    3 type  4   force =    -0.00000958    0.00017308    0.00077441
     atom    4 type  4   force =     0.00074431    0.00006794   -0.00026196
     atom    5 type  4   force =    -0.00042758    0.00050235   -0.00032836
     The Hubbard contrib.    to forces
     atom    1 type  3   force =     0.00000000    0.00000000    0.00000000
     atom    2 type  4   force =     0.00000000    0.00000000    0.00000000
     atom    3 type  4   force =     0.00000000    0.00000000    0.00000000
     atom    4 type  4   force =     0.00000000    0.00000000    0.00000000
     atom    5 type  4   force =     0.00000000    0.00000000    0.00000000
     The SCF correction term to forces
     atom    1 type  3   force =     0.00000154    0.00000305    0.00000105
     atom    2 type  4   force =     0.00000022   -0.00000265   -0.00000094
     atom    3 type  4   force =     0.00000240    0.00000403   -0.00000363
     atom    4 type  4   force =    -0.00000206    0.00000300    0.00000346
     atom    5 type  4   force =     0.00000499    0.00000233    0.00000506

     Dispersion contribution to forces:
     atom    1 type  3   force =     0.00000379   -0.00000580    0.00000180
     atom    2 type  4   force =     0.00053585    0.00145476    0.00027438
     atom    3 type  4   force =     0.00002333   -0.00028803   -0.00141585
     atom    4 type  4   force =    -0.00138718   -0.00010167    0.00047741
     atom    5 type  4   force =     0.00082421   -0.00105926    0.00066227

     Total force =     0.001002     Total SCF correction =     0.000012

     Total Dispersion Force =     0.002995


     Computing stress (Cartesian axis) and pressure


     negative rho (up, down):  5.893E-02 0.000E+00
          total   stress  (Ry/bohr**3)                   (kbar)     P=        0.01
  -0.00000010   0.00000006   0.00000001           -0.01        0.01        0.00
   0.00000006   0.00000035   0.00000008            0.01        0.05        0.01
   0.00000001   0.00000008  -0.00000013            0.00        0.01       -0.02

     kinetic stress (kbar)    194.31      0.01      0.00
                                0.01    194.43      0.03
                                0.00      0.03    194.28

     local   stress (kbar)  -2832.70     -0.58     -2.69
                               -0.58  -3037.43     -0.52
                               -2.69     -0.52   1916.31

     nonloc. stress (kbar)    177.89      0.00     -0.00
                                0.00    177.92      0.00
                               -0.00      0.00    177.89

     hartree stress (kbar)   1365.04      0.25      1.27
                                0.25   1463.37      0.27
                                1.27      0.27   -995.05

     exc-cor stress (kbar)     52.09      0.00     -0.00
                                0.00     52.09     -0.00
                               -0.00     -0.00     52.09

     corecor stress (kbar)   -113.15     -0.00      0.00
                               -0.00   -113.15     -0.00
                                0.00     -0.00   -113.15

     ewald   stress (kbar)   1156.46      0.33      1.42
                                0.33   1262.79      0.23
                                1.42      0.23  -1232.43

     hubbard stress (kbar)      0.00      0.00      0.00
                                0.00      0.00      0.00
                                0.00      0.00      0.00

     DFT-D   stress (kbar)      0.04      0.00     -0.00
                                0.00      0.03      0.00
                               -0.00      0.00      0.04

     XDM     stress (kbar)      0.00      0.00      0.00
                                0.00      0.00      0.00
                                0.00      0.00      0.00

     dft-nl  stress (kbar)      0.00      0.00      0.00
                                0.00      0.00      0.00
                                0.00      0.00      0.00

     TS-vdW  stress (kbar)      0.00      0.00      0.00
                                0.00      0.00      0.00
                                0.00      0.00      0.00


                                0.00      0.00      0.00
                                0.00      0.00      0.00


                                0.00      0.00      0.00

     Energy error            =      3.5E-06 Ry
     Gradient error          =      5.3E-04 Ry/Bohr

     number of scf cycles    =  17
     number of bfgs steps    =  16

     energy             old  =    -144.6076880026 Ry
     energy             new  =    -144.6076914836 Ry

     CASE: energy            _new < energy            _old

     new trust radius        =       0.0114252533 bohr
     new conv_thr            =       0.0000000002 Ry


ATOMIC_POSITIONS (angstrom)
Si            5.0130621242        4.6436857397       22.2902766672
Cl            5.7364856370        6.5045101877       22.6475488104
Cl            5.0497243408        4.2837182217       20.2933544571
Cl            3.1049164242        4.5188721525       22.9696225977
Cl            6.1650214739        3.2776836984       23.2529374675



     Writing output data file ./out/aiida.save/
     NEW-OLD atomic charge density approx. for the potential

     negative rho (up, down):  5.890E-02 0.000E+00

     total cpu time spent up to now is      243.5 secs

     Self-consistent Calculation

     iteration #  1     ecut=    60.00 Ry     beta= 0.40
     Davidson diagonalization with overlap

---- Real-time Memory Report at c_bands before calling an iterative solver
           639 MiB given to the printing process from OS
             0 MiB allocation reported by mallinfo(arena+hblkhd)
        323830 MiB available memory on the node where the printing process lives
------------------
     ethr =  1.00E-06,  avg # of iterations =  6.0

     Threshold (ethr) on eigenvalues was too large:
     Diagonalizing with lowered threshold

     Davidson diagonalization with overlap

---- Real-time Memory Report at c_bands before calling an iterative solver
           639 MiB given to the printing process from OS
             0 MiB allocation reported by mallinfo(arena+hblkhd)
        323823 MiB available memory on the node where the printing process lives
------------------
     ethr =  1.43E-08,  avg # of iterations =  5.0

     negative rho (up, down):  5.889E-02 0.000E+00

     total cpu time spent up to now is      244.7 secs

     total energy              =    -144.60769598 Ry
     estimated scf accuracy    <       0.00000321 Ry

     iteration #  2     ecut=    60.00 Ry     beta= 0.40
     Davidson diagonalization with overlap

---- Real-time Memory Report at c_bands before calling an iterative solver
           639 MiB given to the printing process from OS
             0 MiB allocation reported by mallinfo(arena+hblkhd)
        323823 MiB available memory on the node where the printing process lives
------------------
     ethr =  1.00E-08,  avg # of iterations =  1.0

     negative rho (up, down):  5.891E-02 0.000E+00

     total cpu time spent up to now is      245.4 secs

     total energy              =    -144.60769588 Ry
     estimated scf accuracy    <       0.00000090 Ry

     iteration #  3     ecut=    60.00 Ry     beta= 0.40
     Davidson diagonalization with overlap

---- Real-time Memory Report at c_bands before calling an iterative solver
           639 MiB given to the printing process from OS
             0 MiB allocation reported by mallinfo(arena+hblkhd)
        323824 MiB available memory on the node where the printing process lives
------------------
     ethr =  2.81E-09,  avg # of iterations =  2.0

     negative rho (up, down):  5.890E-02 0.000E+00

     total cpu time spent up to now is      246.1 secs

     total energy              =    -144.60769593 Ry
     estimated scf accuracy    <       0.00000003 Ry

     iteration #  4     ecut=    60.00 Ry     beta= 0.40
     Davidson diagonalization with overlap

---- Real-time Memory Report at c_bands before calling an iterative solver
           639 MiB given to the printing process from OS
             0 MiB allocation reported by mallinfo(arena+hblkhd)
        323824 MiB available memory on the node where the printing process lives
------------------
     ethr =  9.86E-11,  avg # of iterations =  2.0

     negative rho (up, down):  5.890E-02 0.000E+00

     total cpu time spent up to now is      246.8 secs

     total energy              =    -144.60769594 Ry
     estimated scf accuracy    <          3.0E-09 Ry

     iteration #  5     ecut=    60.00 Ry     beta= 0.40
     Davidson diagonalization with overlap

---- Real-time Memory Report at c_bands before calling an iterative solver
           639 MiB given to the printing process from OS
             0 MiB allocation reported by mallinfo(arena+hblkhd)
        323824 MiB available memory on the node where the printing process lives
------------------
     ethr =  9.31E-12,  avg # of iterations =  4.0

     negative rho (up, down):  5.889E-02 0.000E+00

     total cpu time spent up to now is      247.5 secs

     total energy              =    -144.60769594 Ry
     estimated scf accuracy    <          4.7E-10 Ry

     iteration #  6     ecut=    60.00 Ry     beta= 0.40
     Davidson diagonalization with overlap

---- Real-time Memory Report at c_bands before calling an iterative solver
           639 MiB given to the printing process from OS
             0 MiB allocation reported by mallinfo(arena+hblkhd)
        323824 MiB available memory on the node where the printing process lives
------------------
     ethr =  1.47E-12,  avg # of iterations =  2.0

     negative rho (up, down):  5.889E-02 0.000E+00

     total cpu time spent up to now is      248.2 secs

     End of self-consistent calculation

          k = 0.0000 0.0000 0.0000 ( 95217 PWs)   bands (ev):

   -22.0754 -20.8825 -20.8803 -20.8737 -13.4947 -10.8157 -10.8143 -10.8072
    -8.8682  -8.8642  -8.6225  -8.6209  -8.6092  -7.8272  -7.8208  -7.8185
    -1.6904  -0.4519  -0.4085  -0.3550

     occupation numbers 
     1.0000   1.0000   1.0000   1.0000   1.0000   1.0000   1.0000   1.0000
     1.0000   1.0000   1.0000   1.0000   1.0000   1.0000   1.0000   1.0000
     0.0000   0.0000   0.0000   0.0000

     the Fermi energy is    -4.7851 ev

!    total energy              =    -144.60769594 Ry
     estimated scf accuracy    <          1.3E-10 Ry
     smearing contrib. (-TS)   =       0.00000000 Ry
     internal energy E=F+TS    =    -144.60769594 Ry

     The total energy is F=E-TS. E is the sum of the following terms:
     one-electron contribution =    -599.46440537 Ry
     hartree contribution      =     302.50155112 Ry
     xc contribution           =     -43.45424035 Ry
     ewald contribution        =     195.81724204 Ry
     Dispersion Correction     =      -0.00784339 Ry
     one-center paw contrib.   =       0.00000000 Ry
      -> PAW hartree energy AE =       0.00000000 Ry
      -> PAW hartree energy PS =       0.00000000 Ry
      -> PAW xc energy AE      =       0.00000000 Ry
      -> PAW xc energy PS      =       0.00000000 Ry
      -> total E_H with PAW    =     302.50155112 Ry
      -> total E_XC with PAW   =     -43.45424035 Ry

     convergence has been achieved in   6 iterations

     negative rho (up, down):  5.889E-02 0.000E+00

     Forces acting on atoms (cartesian axes, Ry/au):

     atom    1 type  3   force =     0.00021063    0.00034265    0.00013952
     atom    2 type  4   force =    -0.00020851    0.00024269   -0.00013511
     atom    3 type  4   force =    -0.00013681   -0.00056882    0.00068482
     atom    4 type  4   force =     0.00045019   -0.00021405   -0.00035715
     atom    5 type  4   force =    -0.00031549    0.00019754   -0.00033208
     The non-local contrib.  to forces
     atom    1 type  3   force =    -0.00000278   -0.00183264    0.00003843
     atom    2 type  4   force =    -0.08090482   -0.21232322   -0.03861902
     atom    3 type  4   force =    -0.00439054    0.03952713    0.22731926
     atom    4 type  4   force =     0.21703910    0.01345277   -0.07747676
     atom    5 type  4   force =    -0.13142405    0.15544444   -0.11081539
     The ionic contribution  to forces
     atom    1 type  3   force =    -0.04030007    0.00136298   -0.03353391
     atom    2 type  4   force =     3.18901004    7.39339702    2.06153939
     atom    3 type  4   force =     0.11639621   -1.46921702  -11.61826276
     atom    4 type  4   force =    -8.32483990   -0.49121230    3.94416261
     atom    5 type  4   force =     5.05973372   -5.43433068    5.64609467
     The local contribution  to forces
     atom    1 type  3   force =     0.04047394    0.00049476    0.03361660
     atom    2 type  4   force =    -3.10850534   -7.18156267   -2.02310758
     atom    3 type  4   force =    -0.11216497    1.42922636   11.39227998
     atom    4 type  4   force =     8.10889914    0.47757063   -3.86726921
     atom    5 type  4   force =    -4.92903790    5.27962839   -5.53596319
     The core correction contribution to forces
     atom    1 type  3   force =     0.00003243    0.00031653    0.00001417
     atom    2 type  4   force =    -0.00033842   -0.00071889   -0.00021399
     atom    3 type  4   force =    -0.00000652    0.00018368    0.00076397
     atom    4 type  4   force =     0.00073856    0.00007134   -0.00025541
     atom    5 type  4   force =    -0.00042186    0.00050350   -0.00031964
     The Hubbard contrib.    to forces
     atom    1 type  3   force =     0.00000000    0.00000000    0.00000000
     atom    2 type  4   force =     0.00000000    0.00000000    0.00000000
     atom    3 type  4   force =     0.00000000    0.00000000    0.00000000
     atom    4 type  4   force =     0.00000000    0.00000000    0.00000000
     atom    5 type  4   force =     0.00000000    0.00000000    0.00000000
     The SCF correction term to forces
     atom    1 type  3   force =     0.00000337    0.00000729    0.00000182
     atom    2 type  4   force =    -0.00000448   -0.00001209   -0.00000869
     atom    3 type  4   force =     0.00000680    0.00000771   -0.00000754
     atom    4 type  4   force =    -0.00000327    0.00000711    0.00000720
     atom    5 type  4   force =     0.00001178    0.00000966    0.00001182

     Dispersion contribution to forces:
     atom    1 type  3   force =     0.00000376   -0.00000591    0.00000178
     atom    2 type  4   force =     0.00053454    0.00146289    0.00027414
     atom    3 type  4   force =     0.00002225   -0.00029632   -0.00140872
     atom    4 type  4   force =    -0.00138340   -0.00010326    0.00047379
     atom    5 type  4   force =     0.00082285   -0.00105741    0.00065901

     Total force =     0.001318     Total SCF correction =     0.000031

     Total Dispersion Force =     0.002992


     Computing stress (Cartesian axis) and pressure


     negative rho (up, down):  5.889E-02 0.000E+00
          total   stress  (Ry/bohr**3)                   (kbar)     P=        0.00
  -0.00000012   0.00000007   0.00000002           -0.02        0.01        0.00
   0.00000007   0.00000037   0.00000010            0.01        0.05        0.01
   0.00000002   0.00000010  -0.00000017            0.00        0.01       -0.02

     kinetic stress (kbar)    194.30      0.01      0.01
                                0.01    194.45      0.05
                                0.01      0.05    194.26

     local   stress (kbar)  -2832.64     -0.64     -2.67
                               -0.64  -3037.03     -0.36
                               -2.67     -0.36   1916.02

     nonloc. stress (kbar)    177.89      0.01     -0.00
                                0.01    177.92      0.00
                               -0.00      0.00    177.89

     hartree stress (kbar)   1365.01      0.27      1.27
                                0.27   1463.20      0.20
                                1.27      0.20   -994.92

     exc-cor stress (kbar)     52.09      0.00     -0.00
                                0.00     52.09     -0.00
                               -0.00     -0.00     52.09

     corecor stress (kbar)   -113.15     -0.00      0.00
                               -0.00   -113.15      0.00
                                0.00      0.00   -113.15

     ewald   stress (kbar)   1156.44      0.36      1.40
                                0.36   1262.55      0.12
                                1.40      0.12  -1232.26

     hubbard stress (kbar)      0.00      0.00      0.00
                                0.00      0.00      0.00
                                0.00      0.00      0.00

     DFT-D   stress (kbar)      0.04      0.00     -0.00
                                0.00      0.03      0.00
                               -0.00      0.00      0.04

     XDM     stress (kbar)      0.00      0.00      0.00
                                0.00      0.00      0.00
                                0.00      0.00      0.00

     dft-nl  stress (kbar)      0.00      0.00      0.00
                                0.00      0.00      0.00
                                0.00      0.00      0.00

     TS-vdW  stress (kbar)      0.00      0.00      0.00
                                0.00      0.00      0.00
                                0.00      0.00      0.00


                                0.00      0.00      0.00
                                0.00      0.00      0.00


                                0.00      0.00      0.00

     Energy error            =      4.5E-06 Ry
     Gradient error          =      6.8E-04 Ry/Bohr

     number of scf cycles    =  18
     number of bfgs steps    =  17

     energy             old  =    -144.6076914836 Ry
     energy             new  =    -144.6076959379 Ry

     CASE: energy            _new < energy            _old

     new trust radius        =       0.0171378799 bohr
     new conv_thr            =       0.0000000002 Ry


ATOMIC_POSITIONS (angstrom)
Si            5.0126864536        4.6429384705       22.2900199033
Cl            5.7328495364        6.5063065286       22.6404805439
Cl            5.0508316439        4.2782886256       20.2938227813
Cl            3.1049002694        4.5170508031       22.9705418769
Cl            6.1679420967        3.2838855722       23.2588748945



     Writing output data file ./out/aiida.save/
     NEW-OLD atomic charge density approx. for the potential

     negative rho (up, down):  5.884E-02 0.000E+00

     total cpu time spent up to now is      255.9 secs

     Self-consistent Calculation

     iteration #  1     ecut=    60.00 Ry     beta= 0.40
     Davidson diagonalization with overlap

---- Real-time Memory Report at c_bands before calling an iterative solver
           641 MiB given to the printing process from OS
             0 MiB allocation reported by mallinfo(arena+hblkhd)
        323829 MiB available memory on the node where the printing process lives
------------------
     ethr =  1.00E-06,  avg # of iterations =  6.0

     Threshold (ethr) on eigenvalues was too large:
     Diagonalizing with lowered threshold

     Davidson diagonalization with overlap

---- Real-time Memory Report at c_bands before calling an iterative solver
           641 MiB given to the printing process from OS
             0 MiB allocation reported by mallinfo(arena+hblkhd)
        323819 MiB available memory on the node where the printing process lives
------------------
     ethr =  2.21E-08,  avg # of iterations =  4.0

     negative rho (up, down):  5.884E-02 0.000E+00

     total cpu time spent up to now is      257.0 secs

     total energy              =    -144.60770142 Ry
     estimated scf accuracy    <       0.00000720 Ry

     iteration #  2     ecut=    60.00 Ry     beta= 0.40
     Davidson diagonalization with overlap

---- Real-time Memory Report at c_bands before calling an iterative solver
           641 MiB given to the printing process from OS
             0 MiB allocation reported by mallinfo(arena+hblkhd)
        323819 MiB available memory on the node where the printing process lives
------------------
     ethr =  2.25E-08,  avg # of iterations =  1.0

     negative rho (up, down):  5.888E-02 0.000E+00

     total cpu time spent up to now is      257.7 secs

     total energy              =    -144.60770118 Ry
     estimated scf accuracy    <       0.00000205 Ry

     iteration #  3     ecut=    60.00 Ry     beta= 0.40
     Davidson diagonalization with overlap

---- Real-time Memory Report at c_bands before calling an iterative solver
           641 MiB given to the printing process from OS
             0 MiB allocation reported by mallinfo(arena+hblkhd)
        323819 MiB available memory on the node where the printing process lives
------------------
     ethr =  6.40E-09,  avg # of iterations =  1.0

     negative rho (up, down):  5.886E-02 0.000E+00

     total cpu time spent up to now is      258.4 secs

     total energy              =    -144.60770131 Ry
     estimated scf accuracy    <       0.00000006 Ry

     iteration #  4     ecut=    60.00 Ry     beta= 0.40
     Davidson diagonalization with overlap

---- Real-time Memory Report at c_bands before calling an iterative solver
           641 MiB given to the printing process from OS
             0 MiB allocation reported by mallinfo(arena+hblkhd)
        323818 MiB available memory on the node where the printing process lives
------------------
     ethr =  1.91E-10,  avg # of iterations =  5.0

     negative rho (up, down):  5.884E-02 0.000E+00

     total cpu time spent up to now is      259.1 secs

     total energy              =    -144.60770135 Ry
     estimated scf accuracy    <          5.7E-09 Ry

     iteration #  5     ecut=    60.00 Ry     beta= 0.40
     Davidson diagonalization with overlap

---- Real-time Memory Report at c_bands before calling an iterative solver
           641 MiB given to the printing process from OS
             0 MiB allocation reported by mallinfo(arena+hblkhd)
        323819 MiB available memory on the node where the printing process lives
------------------
     ethr =  1.77E-11,  avg # of iterations =  2.0

     negative rho (up, down):  5.884E-02 0.000E+00

     total cpu time spent up to now is      259.8 secs

     total energy              =    -144.60770135 Ry
     estimated scf accuracy    <          6.9E-10 Ry

     iteration #  6     ecut=    60.00 Ry     beta= 0.40
     Davidson diagonalization with overlap

---- Real-time Memory Report at c_bands before calling an iterative solver
           641 MiB given to the printing process from OS
             0 MiB allocation reported by mallinfo(arena+hblkhd)
        323819 MiB available memory on the node where the printing process lives
------------------
     ethr =  2.15E-12,  avg # of iterations =  4.0

     negative rho (up, down):  5.883E-02 0.000E+00

     total cpu time spent up to now is      260.5 secs

     End of self-consistent calculation

          k = 0.0000 0.0000 0.0000 ( 95217 PWs)   bands (ev):

   -22.0749 -20.8838 -20.8806 -20.8715 -13.4947 -10.8165 -10.8144 -10.8054
    -8.8687  -8.8632  -8.6232  -8.6212  -8.6078  -7.8287  -7.8202  -7.8176
    -1.6910  -0.4531  -0.4073  -0.3546

     occupation numbers 
     1.0000   1.0000   1.0000   1.0000   1.0000   1.0000   1.0000   1.0000
     1.0000   1.0000   1.0000   1.0000   1.0000   1.0000   1.0000   1.0000
     0.0000   0.0000   0.0000   0.0000

     the Fermi energy is    -4.7846 ev

!    total energy              =    -144.60770135 Ry
     estimated scf accuracy    <          7.6E-11 Ry
     smearing contrib. (-TS)   =       0.00000000 Ry
     internal energy E=F+TS    =    -144.60770135 Ry

     The total energy is F=E-TS. E is the sum of the following terms:
     one-electron contribution =    -599.42914693 Ry
     hartree contribution      =     302.48393377 Ry
     xc contribution           =     -43.45393430 Ry
     ewald contribution        =     195.79928983 Ry
     Dispersion Correction     =      -0.00784371 Ry
     one-center paw contrib.   =       0.00000000 Ry
      -> PAW hartree energy AE =       0.00000000 Ry
      -> PAW hartree energy PS =       0.00000000 Ry
      -> PAW xc energy AE      =       0.00000000 Ry
      -> PAW xc energy PS      =       0.00000000 Ry
      -> total E_H with PAW    =     302.48393377 Ry
      -> total E_XC with PAW   =     -43.45393430 Ry

     convergence has been achieved in   6 iterations

     negative rho (up, down):  5.883E-02 0.000E+00

     Forces acting on atoms (cartesian axes, Ry/au):

     atom    1 type  3   force =     0.00031202    0.00049938    0.00020542
     atom    2 type  4   force =    -0.00022911    0.00037814   -0.00007359
     atom    3 type  4   force =    -0.00020188   -0.00075696    0.00089377
     atom    4 type  4   force =     0.00056223   -0.00027076   -0.00049197
     atom    5 type  4   force =    -0.00044326    0.00015020   -0.00053363
     The non-local contrib.  to forces
     atom    1 type  3   force =    -0.00018581   -0.00225489   -0.00009740
     atom    2 type  4   force =    -0.08060545   -0.21236888   -0.03771286
     atom    3 type  4   force =    -0.00469612    0.03963425    0.22753037
     atom    4 type  4   force =     0.21711661    0.01343990   -0.07785499
     atom    5 type  4   force =    -0.13200072    0.15443708   -0.11190307
     The ionic contribution  to forces
     atom    1 type  3   force =    -0.04375664   -0.00570932   -0.03610574
     atom    2 type  4   force =     3.17367025    7.40674496    2.02173195
     atom    3 type  4   force =     0.12093885   -1.49325418  -11.61059366
     atom    4 type  4   force =    -8.32152025   -0.49763430    3.94742811
     atom    5 type  4   force =     5.07066778   -5.41014717    5.67753934
     The local contribution  to forces
     atom    1 type  3   force =     0.04418534    0.00807641    0.03636775
     atom    2 type  4   force =    -3.09349246   -7.19473965   -1.98415455
     atom    3 type  4   force =    -0.11646582    1.45296775   11.38461006
     atom    4 type  4   force =     8.10561255    0.48394778   -3.87028958
     atom    5 type  4   force =    -4.93952133    5.25641292   -5.56651863
     The core correction contribution to forces
     atom    1 type  3   force =     0.00006442    0.00039127    0.00003770
     atom    2 type  4   force =    -0.00033511   -0.00072866   -0.00021612
     atom    3 type  4   force =    -0.00000264    0.00019856    0.00074969
     atom    4 type  4   force =     0.00073119    0.00007561   -0.00024668
     atom    5 type  4   force =    -0.00041404    0.00050534   -0.00030702
     The Hubbard contrib.    to forces
     atom    1 type  3   force =     0.00000000    0.00000000    0.00000000
     atom    2 type  4   force =     0.00000000    0.00000000    0.00000000
     atom    3 type  4   force =     0.00000000    0.00000000    0.00000000
     atom    4 type  4   force =     0.00000000    0.00000000    0.00000000
     atom    5 type  4   force =     0.00000000    0.00000000    0.00000000
     The SCF correction term to forces
     atom    1 type  3   force =     0.00000089    0.00000238    0.00000096
     atom    2 type  4   force =     0.00000127   -0.00000312    0.00000419
     atom    3 type  4   force =     0.00000268    0.00000530   -0.00000412
     atom    4 type  4   force =     0.00000051    0.00000595    0.00000172
     atom    5 type  4   force =     0.00000352   -0.00000325    0.00000058

     Dispersion contribution to forces:
     atom    1 type  3   force =     0.00000372   -0.00000607    0.00000175
     atom    2 type  4   force =     0.00053229    0.00147390    0.00027340
     atom    3 type  4   force =     0.00002106   -0.00030823   -0.00139896
     atom    4 type  4   force =    -0.00137849   -0.00010529    0.00046905
     atom    5 type  4   force =     0.00082142   -0.00105432    0.00065477

     Total force =     0.001771     Total SCF correction =     0.000012

     Total Dispersion Force =     0.002988


     Computing stress (Cartesian axis) and pressure


     negative rho (up, down):  5.883E-02 0.000E+00
          total   stress  (Ry/bohr**3)                   (kbar)     P=        0.00
  -0.00000015   0.00000008   0.00000002           -0.02        0.01        0.00
   0.00000008   0.00000039   0.00000012            0.01        0.06        0.02
   0.00000002   0.00000012  -0.00000022            0.00        0.02       -0.03

     kinetic stress (kbar)    194.29      0.01      0.01
                                0.01    194.47      0.06
                                0.01      0.06    194.24

     local   stress (kbar)  -2832.56     -0.74     -2.64
                               -0.74  -3036.49     -0.12
                               -2.64     -0.12   1915.61

     nonloc. stress (kbar)    177.89      0.01     -0.00
                                0.01    177.92      0.00
                               -0.00      0.00    177.88

     hartree stress (kbar)   1364.97      0.31      1.26
                                0.31   1462.96      0.12
                                1.26      0.12   -994.74

     exc-cor stress (kbar)     52.09      0.00     -0.00
                                0.00     52.09     -0.00
                               -0.00     -0.00     52.09

     corecor stress (kbar)   -113.15     -0.00      0.00
                               -0.00   -113.15      0.00
                                0.00      0.00   -113.15

     ewald   stress (kbar)   1156.41      0.42      1.38
                                0.42   1262.22     -0.04
                                1.38     -0.04  -1232.01

     hubbard stress (kbar)      0.00      0.00      0.00
                                0.00      0.00      0.00
                                0.00      0.00      0.00

     DFT-D   stress (kbar)      0.04      0.00      0.00
                                0.00      0.03      0.00
                                0.00      0.00      0.04

     XDM     stress (kbar)      0.00      0.00      0.00
                                0.00      0.00      0.00
                                0.00      0.00      0.00

     dft-nl  stress (kbar)      0.00      0.00      0.00
                                0.00      0.00      0.00
                                0.00      0.00      0.00

     TS-vdW  stress (kbar)      0.00      0.00      0.00
                                0.00      0.00      0.00
                                0.00      0.00      0.00


                                0.00      0.00      0.00
                                0.00      0.00      0.00


                                0.00      0.00      0.00

     Energy error            =      5.4E-06 Ry
     Gradient error          =      8.9E-04 Ry/Bohr

     number of scf cycles    =  19
     number of bfgs steps    =  18

     energy             old  =    -144.6076959379 Ry
     energy             new  =    -144.6077013469 Ry

     CASE: energy            _new < energy            _old

     new trust radius        =       0.0257068199 bohr
     new conv_thr            =       0.0000000002 Ry


ATOMIC_POSITIONS (angstrom)
Si            5.0122237926        4.6419711979       22.2897004781
Cl            5.7272925985        6.5092207105       22.6297794746
Cl            5.0524515370        4.2697970485       20.2947298317
Cl            3.1049644092        4.5142145191       22.9718091456
Cl            6.1722776627        3.2932665240       23.2677210701



     Writing output data file ./out/aiida.save/
     NEW-OLD atomic charge density approx. for the potential

     negative rho (up, down):  5.879E-02 0.000E+00

     total cpu time spent up to now is      268.2 secs

     Self-consistent Calculation

     iteration #  1     ecut=    60.00 Ry     beta= 0.40
     Davidson diagonalization with overlap

---- Real-time Memory Report at c_bands before calling an iterative solver
           643 MiB given to the printing process from OS
             0 MiB allocation reported by mallinfo(arena+hblkhd)
        323823 MiB available memory on the node where the printing process lives
------------------
     ethr =  1.00E-06,  avg # of iterations =  7.0

     Threshold (ethr) on eigenvalues was too large:
     Diagonalizing with lowered threshold

     Davidson diagonalization with overlap

---- Real-time Memory Report at c_bands before calling an iterative solver
           643 MiB given to the printing process from OS
             0 MiB allocation reported by mallinfo(arena+hblkhd)
        323817 MiB available memory on the node where the printing process lives
------------------
     ethr =  5.14E-08,  avg # of iterations =  3.0

     negative rho (up, down):  5.878E-02 0.000E+00

     total cpu time spent up to now is      269.4 secs

     total energy              =    -144.60770738 Ry
     estimated scf accuracy    <       0.00001632 Ry

     iteration #  2     ecut=    60.00 Ry     beta= 0.40
     Davidson diagonalization with overlap

---- Real-time Memory Report at c_bands before calling an iterative solver
           643 MiB given to the printing process from OS
             0 MiB allocation reported by mallinfo(arena+hblkhd)
        323818 MiB available memory on the node where the printing process lives
------------------
     ethr =  5.10E-08,  avg # of iterations =  1.0

     negative rho (up, down):  5.887E-02 0.000E+00

     total cpu time spent up to now is      270.1 secs

     total energy              =    -144.60770692 Ry
     estimated scf accuracy    <       0.00000468 Ry

     iteration #  3     ecut=    60.00 Ry     beta= 0.40
     Davidson diagonalization with overlap

---- Real-time Memory Report at c_bands before calling an iterative solver
           643 MiB given to the printing process from OS
             0 MiB allocation reported by mallinfo(arena+hblkhd)
        323818 MiB available memory on the node where the printing process lives
------------------
     ethr =  1.46E-08,  avg # of iterations =  2.0

     negative rho (up, down):  5.883E-02 0.000E+00

     total cpu time spent up to now is      270.7 secs

     total energy              =    -144.60770737 Ry
     estimated scf accuracy    <       0.00000014 Ry

     iteration #  4     ecut=    60.00 Ry     beta= 0.40
     Davidson diagonalization with overlap

---- Real-time Memory Report at c_bands before calling an iterative solver
           643 MiB given to the printing process from OS
             0 MiB allocation reported by mallinfo(arena+hblkhd)
        323818 MiB available memory on the node where the printing process lives
------------------
     ethr =  4.47E-10,  avg # of iterations =  5.0

     negative rho (up, down):  5.880E-02 0.000E+00

     total cpu time spent up to now is      271.5 secs

     total energy              =    -144.60770753 Ry
     estimated scf accuracy    <       0.00000001 Ry

     iteration #  5     ecut=    60.00 Ry     beta= 0.40
     Davidson diagonalization with overlap

---- Real-time Memory Report at c_bands before calling an iterative solver
           643 MiB given to the printing process from OS
             0 MiB allocation reported by mallinfo(arena+hblkhd)
        323818 MiB available memory on the node where the printing process lives
------------------
     ethr =  4.41E-11,  avg # of iterations =  2.0

     negative rho (up, down):  5.878E-02 0.000E+00

     total cpu time spent up to now is      272.2 secs

     total energy              =    -144.60770753 Ry
     estimated scf accuracy    <          1.7E-09 Ry

     iteration #  6     ecut=    60.00 Ry     beta= 0.40
     Davidson diagonalization with overlap

---- Real-time Memory Report at c_bands before calling an iterative solver
           643 MiB given to the printing process from OS
             0 MiB allocation reported by mallinfo(arena+hblkhd)
        323818 MiB available memory on the node where the printing process lives
------------------
     ethr =  5.37E-12,  avg # of iterations =  4.0

     negative rho (up, down):  5.877E-02 0.000E+00

     total cpu time spent up to now is      272.9 secs

     total energy              =    -144.60770753 Ry
     estimated scf accuracy    <          2.2E-10 Ry

     iteration #  7     ecut=    60.00 Ry     beta= 0.40
     Davidson diagonalization with overlap

---- Real-time Memory Report at c_bands before calling an iterative solver
           643 MiB given to the printing process from OS
             0 MiB allocation reported by mallinfo(arena+hblkhd)
        323819 MiB available memory on the node where the printing process lives
------------------
     ethr =  6.77E-13,  avg # of iterations =  2.0

     negative rho (up, down):  5.877E-02 0.000E+00

     total cpu time spent up to now is      273.6 secs

     End of self-consistent calculation

          k = 0.0000 0.0000 0.0000 ( 95217 PWs)   bands (ev):

   -22.0741 -20.8855 -20.8809 -20.8686 -13.4946 -10.8179 -10.8144 -10.8030
    -8.8695  -8.8617  -8.6242  -8.6216  -8.6060  -7.8306  -7.8195  -7.8165
    -1.6921  -0.4548  -0.4056  -0.3540

     occupation numbers 
     1.0000   1.0000   1.0000   1.0000   1.0000   1.0000   1.0000   1.0000
     1.0000   1.0000   1.0000   1.0000   1.0000   1.0000   1.0000   1.0000
     0.0000   0.0000   0.0000   0.0000

     the Fermi energy is    -4.7841 ev

!    total energy              =    -144.60770753 Ry
     estimated scf accuracy    <          2.0E-11 Ry
     smearing contrib. (-TS)   =       0.00000000 Ry
     internal energy E=F+TS    =    -144.60770753 Ry

     The total energy is F=E-TS. E is the sum of the following terms:
     one-electron contribution =    -599.38066210 Ry
     hartree contribution      =     302.45969106 Ry
     xc contribution           =     -43.45350282 Ry
     ewald contribution        =     195.77461039 Ry
     Dispersion Correction     =      -0.00784406 Ry
     one-center paw contrib.   =       0.00000000 Ry
      -> PAW hartree energy AE =       0.00000000 Ry
      -> PAW hartree energy PS =       0.00000000 Ry
      -> PAW xc energy AE      =       0.00000000 Ry
      -> PAW xc energy PS      =       0.00000000 Ry
      -> total E_H with PAW    =     302.45969106 Ry
      -> total E_XC with PAW   =     -43.45350282 Ry

     convergence has been achieved in   7 iterations

     negative rho (up, down):  5.877E-02 0.000E+00

     Forces acting on atoms (cartesian axes, Ry/au):

     atom    1 type  3   force =     0.00044943    0.00070075    0.00029270
     atom    2 type  4   force =    -0.00026223    0.00054321    0.00001382
     atom    3 type  4   force =    -0.00027919   -0.00100632    0.00117290
     atom    4 type  4   force =     0.00070467   -0.00033480   -0.00066422
     atom    5 type  4   force =    -0.00061267    0.00009716   -0.00081519
     The non-local contrib.  to forces
     atom    1 type  3   force =    -0.00039255   -0.00280573   -0.00025994
     atom    2 type  4   force =    -0.08013932   -0.21251114   -0.03636167
     atom    3 type  4   force =    -0.00509262    0.03992160    0.22778003
     atom    4 type  4   force =     0.21720262    0.01349472   -0.07834177
     atom    5 type  4   force =    -0.13279357    0.15299530   -0.11345747
     The ionic contribution  to forces
     atom    1 type  3   force =    -0.04783753   -0.01479813   -0.03919288
     atom    2 type  4   force =     3.14986930    7.42621106    1.96113150
     atom    3 type  4   force =     0.12777315   -1.53039168  -11.59887904
     atom    4 type  4   force =    -8.31697353   -0.50760400    3.95218745
     atom    5 type  4   force =     5.08716861   -5.37341725    5.72475297
     The local contribution  to forces
     atom    1 type  3   force =     0.04857580    0.01782381    0.03967830
     atom    2 type  4   force =    -3.07019307   -7.21390994   -1.92481175
     atom    3 type  4   force =    -0.12298111    1.48956965   11.37292548
     atom    4 type  4   force =     8.10112531    0.49380248   -3.87473625
     atom    5 type  4   force =    -4.95540179    5.22106701   -5.61246654
     The core correction contribution to forces
     atom    1 type  3   force =     0.00010062    0.00048868    0.00006578
     atom    2 type  4   force =    -0.00032950   -0.00074061   -0.00021785
     atom    3 type  4   force =     0.00000179    0.00021901    0.00073074
     atom    4 type  4   force =     0.00072203    0.00008079   -0.00023589
     atom    5 type  4   force =    -0.00040418    0.00050580   -0.00029050
     The Hubbard contrib.    to forces
     atom    1 type  3   force =     0.00000000    0.00000000    0.00000000
     atom    2 type  4   force =     0.00000000    0.00000000    0.00000000
     atom    3 type  4   force =     0.00000000    0.00000000    0.00000000
     atom    4 type  4   force =     0.00000000    0.00000000    0.00000000
     atom    5 type  4   force =     0.00000000    0.00000000    0.00000000
     The SCF correction term to forces
     atom    1 type  3   force =    -0.00000110   -0.00000185   -0.00000100
     atom    2 type  4   force =     0.00000150    0.00000546    0.00000128
     atom    3 type  4   force =    -0.00000093   -0.00000003    0.00000065
     atom    4 type  4   force =    -0.00000009   -0.00000131   -0.00000152
     atom    5 type  4   force =    -0.00000245   -0.00000498   -0.00000381

     Dispersion contribution to forces:
     atom    1 type  3   force =     0.00000366   -0.00000628    0.00000170
     atom    2 type  4   force =     0.00052833    0.00148812    0.00027156
     atom    3 type  4   force =     0.00002002   -0.00032512   -0.00138570
     atom    4 type  4   force =    -0.00137219   -0.00010774    0.00046302
     atom    5 type  4   force =     0.00082018   -0.00104897    0.00064942

     Total force =     0.002389     Total SCF correction =     0.000009

     Total Dispersion Force =     0.002983


     Computing stress (Cartesian axis) and pressure


     negative rho (up, down):  5.877E-02 0.000E+00
          total   stress  (Ry/bohr**3)                   (kbar)     P=       -0.00
  -0.00000019   0.00000010   0.00000003           -0.03        0.01        0.00
   0.00000010   0.00000042   0.00000016            0.01        0.06        0.02
   0.00000003   0.00000016  -0.00000029            0.00        0.02       -0.04

     kinetic stress (kbar)    194.28      0.01      0.01
                                0.01    194.49      0.08
                                0.01      0.08    194.21

     local   stress (kbar)  -2832.43     -0.88     -2.61
                               -0.88  -3035.75      0.20
                               -2.61      0.20   1915.04

     nonloc. stress (kbar)    177.89      0.01     -0.00
                                0.01    177.92      0.00
                               -0.00      0.00    177.88

     hartree stress (kbar)   1364.90      0.36      1.24
                                0.36   1462.64     -0.00
                                1.24     -0.00   -994.50

     exc-cor stress (kbar)     52.09      0.00     -0.00
                                0.00     52.09     -0.00
                               -0.00     -0.00     52.09

     corecor stress (kbar)   -113.15     -0.00      0.00
                               -0.00   -113.15      0.00
                                0.00      0.00   -113.15

     ewald   stress (kbar)   1156.35      0.51      1.36
                                0.51   1261.79     -0.26
                                1.36     -0.26  -1231.66

     hubbard stress (kbar)      0.00      0.00      0.00
                                0.00      0.00      0.00
                                0.00      0.00      0.00

     DFT-D   stress (kbar)      0.04      0.00      0.00
                                0.00      0.03      0.00
                                0.00      0.00      0.04

     XDM     stress (kbar)      0.00      0.00      0.00
                                0.00      0.00      0.00
                                0.00      0.00      0.00

     dft-nl  stress (kbar)      0.00      0.00      0.00
                                0.00      0.00      0.00
                                0.00      0.00      0.00

     TS-vdW  stress (kbar)      0.00      0.00      0.00
                                0.00      0.00      0.00
                                0.00      0.00      0.00


                                0.00      0.00      0.00
                                0.00      0.00      0.00


                                0.00      0.00      0.00

     Energy error            =      6.2E-06 Ry
     Gradient error          =      1.2E-03 Ry/Bohr

     number of scf cycles    =  20
     number of bfgs steps    =  19

     energy             old  =    -144.6077013469 Ry
     energy             new  =    -144.6077075304 Ry

     CASE: energy            _new < energy            _old

     new trust radius        =       0.0351006013 bohr
     new conv_thr            =       0.0000000002 Ry


ATOMIC_POSITIONS (angstrom)
Si            5.0117878053        4.6409369116       22.2893897110
Cl            5.7195013153        6.5136016772       22.6149849383
Cl            5.0545947870        4.2575393401       20.2963636830
Cl            3.1052163230        4.5101547017       22.9733326497
Cl            6.1781097694        3.3062373693       23.2796690181



     Writing output data file ./out/aiida.save/
     NEW-OLD atomic charge density approx. for the potential

     negative rho (up, down):  5.879E-02 0.000E+00

     total cpu time spent up to now is      281.3 secs

     Self-consistent Calculation

     iteration #  1     ecut=    60.00 Ry     beta= 0.40
     Davidson diagonalization with overlap

---- Real-time Memory Report at c_bands before calling an iterative solver
           644 MiB given to the printing process from OS
             0 MiB allocation reported by mallinfo(arena+hblkhd)
        323827 MiB available memory on the node where the printing process lives
------------------
     ethr =  1.00E-06,  avg # of iterations =  8.0

     Threshold (ethr) on eigenvalues was too large:
     Diagonalizing with lowered threshold

     Davidson diagonalization with overlap

---- Real-time Memory Report at c_bands before calling an iterative solver
           644 MiB given to the printing process from OS
             0 MiB allocation reported by mallinfo(arena+hblkhd)
        323818 MiB available memory on the node where the printing process lives
------------------
     ethr =  9.61E-08,  avg # of iterations =  2.0

     negative rho (up, down):  5.877E-02 0.000E+00

     total cpu time spent up to now is      282.5 secs

     total energy              =    -144.60771534 Ry
     estimated scf accuracy    <       0.00003079 Ry

     iteration #  2     ecut=    60.00 Ry     beta= 0.40
     Davidson diagonalization with overlap

---- Real-time Memory Report at c_bands before calling an iterative solver
           644 MiB given to the printing process from OS
             0 MiB allocation reported by mallinfo(arena+hblkhd)
        323818 MiB available memory on the node where the printing process lives
------------------
     ethr =  9.62E-08,  avg # of iterations =  1.0

     negative rho (up, down):  5.892E-02 0.000E+00

     total cpu time spent up to now is      283.2 secs

     total energy              =    -144.60771434 Ry
     estimated scf accuracy    <       0.00000886 Ry

     Program stopped by user request
     Calculation stopped in scf loop at iteration #     2

     Writing output data file ./out/aiida.save/
     Message from routine punch:
     wavefunctions written to file
 
     init_run     :      3.91s CPU      4.10s WALL (       1 calls)
     electrons    :    109.39s CPU    128.64s WALL (      21 calls)
     update_pot   :     39.15s CPU     39.50s WALL (      20 calls)
     forces       :     28.89s CPU     30.01s WALL (      20 calls)
     force_london :      0.01s CPU      0.01s WALL (      20 calls)
     stress       :     72.91s CPU     76.50s WALL (      20 calls)
     stres_london :      0.02s CPU      0.02s WALL (      20 calls)

     Called by init_run:
     wfcinit      :      0.15s CPU      0.16s WALL (       1 calls)
     wfcinit:atom :      0.00s CPU      0.00s WALL (       1 calls)
     wfcinit:wfcr :      0.15s CPU      0.16s WALL (       1 calls)
     potinit      :      1.37s CPU      1.41s WALL (       1 calls)
     hinit0       :      1.51s CPU      1.60s WALL (       1 calls)

     Called by electrons:
     c_bands      :     31.79s CPU     33.08s WALL (     154 calls)
     sum_band     :     35.12s CPU     42.96s WALL (     154 calls)
     v_of_rho     :     13.66s CPU     14.08s WALL (     161 calls)
     v_h          :      1.45s CPU      1.47s WALL (     161 calls)
     v_xc         :     15.21s CPU     15.69s WALL (     201 calls)
     newd         :     27.66s CPU     35.22s WALL (     161 calls)
     PAW_pot      :      0.17s CPU      0.17s WALL (     181 calls)
     mix_rho      :      2.35s CPU      2.41s WALL (     154 calls)
     energy_londo :      0.01s CPU      0.02s WALL (      21 calls)

     Called by c_bands:
     init_us_2    :      0.29s CPU      0.38s WALL (     329 calls)
     regterg      :     30.56s CPU     31.56s WALL (     154 calls)

     Called by sum_band:
     sum_band:wei :      0.00s CPU      0.00s WALL (     154 calls)
     sum_band:loo :      1.76s CPU      1.83s WALL (     154 calls)
     sum_band:buf :      0.00s CPU      0.00s WALL (     154 calls)
     sum_band:ini :      0.15s CPU      0.20s WALL (     154 calls)
     sum_band:cal :      0.13s CPU      0.13s WALL (     174 calls)
     sum_band:bec :      0.00s CPU      0.00s WALL (     174 calls)
     addusdens    :     31.71s CPU     39.40s WALL (     154 calls)
     addusd:skk   :      0.06s CPU      0.09s WALL (     616 calls)
     addusd:dgemm :      9.92s CPU     17.26s WALL (     616 calls)
     addusd:qvan2 :     20.33s CPU     20.52s WALL (     616 calls)

     Called by *egterg:
     rdiaghg      :      3.29s CPU      3.34s WALL (     771 calls)
     regterg:over :      2.55s CPU      2.56s WALL (     651 calls)
     regterg:upda :      2.62s CPU      2.84s WALL (     651 calls)
     regterg:last :      0.84s CPU      0.85s WALL (     432 calls)
     rdiaghg:chol :      0.27s CPU      0.27s WALL (     771 calls)
     rdiaghg:inve :      0.06s CPU      0.06s WALL (     771 calls)
     rdiaghg:para :      0.29s CPU      0.29s WALL (    1542 calls)
     h_psi        :     12.06s CPU     12.49s WALL (     806 calls)
     s_psi        :      0.29s CPU      0.29s WALL (     806 calls)
     g_psi        :      0.04s CPU      0.04s WALL (     651 calls)

     Called by h_psi:
     h_psi:calbec :      0.82s CPU      0.85s WALL (     806 calls)
     vloc_psi     :     10.78s CPU     11.16s WALL (     806 calls)
     add_vuspsi   :      0.42s CPU      0.42s WALL (     806 calls)

     General routines
     calbec       :      1.13s CPU      1.25s WALL (    1080 calls)
     fft          :     18.64s CPU     18.94s WALL (    2165 calls)
     ffts         :      0.44s CPU      0.46s WALL (     315 calls)
     fftw         :      8.96s CPU      9.30s WALL (   11770 calls)
     interpolate  :      1.51s CPU      1.54s WALL (     161 calls)
     davcio       :      0.00s CPU      0.00s WALL (       5 calls)
 
     Parallel routines

     PAW routines
     PAW_pot      :      0.17s CPU      0.17s WALL (     181 calls)
 
     PWSCF        :   4m18.69s CPU   4m44.95s WALL

 
   This run was terminated on:  21: 7:46  18Jul2025            

=------------------------------------------------------------------------------=
   JOB DONE.
=------------------------------------------------------------------------------=
