DIM-GROUP   
3 1  
PRIMVEC   
10.0555639621 0.0000000000 0.0000000000 
0.0000000000 8.7083697802 0.0000000000 
0.0000000000 0.0000000000 41.0756715617 
   
PRIMCOORD   
89 1  
H 5.6060754865 0.7481940881 9.4903979474
H 1.4326246821 1.5118975899 8.7176750858
H 9.0057693588 5.8575600607 8.7157028253
H 4.6115089842 5.6933930749 8.9401388119
H 4.9164536846 4.0747791689 10.2136507424
H -0.0756801967 4.1428525551 10.0353395000
H 2.4456549998 8.5113939358 10.0210270658
H 7.5088686841 8.5941186993 10.0674274802
O 1.4335400000 1.1984700000 9.6339000000
O 6.4612300000 1.1984100000 9.6339600000
O 3.9473300000 5.5525700000 9.6340000000
O 8.9750000000 5.5525400000 9.6340000000
O 3.3265200000 8.0971500000 10.1805100000
O 8.3542800000 8.0971400000 10.1805200000
O 0.8125600000 3.7430200000 10.1805300000
O 5.8403400000 3.7429800000 10.1806000000
Si 1.3432600000 2.3361100000 10.7928300000
Si 3.8572300000 6.6902700000 10.7928700000
Si 8.8849600000 6.6902500000 10.7928800000
Si 6.3709900000 2.3360400000 10.7929000000
O 0.3221147008 6.8973211807 11.4068338541
O 2.8416080638 2.5596308212 11.3936332198
O 5.3577380750 6.9430820829 11.3881984087
O 7.8886740148 2.5127570666 11.3456622008
O 0.3452739545 1.7330838284 11.9402773758
O 2.8394752521 6.0773823229 11.9081112757
O 5.3470628635 1.7706729300 11.9404372486
O 7.8696077214 6.0902068630 11.9287398934
Si 1.3566667376 6.3357704477 12.5296012483
Si 8.8998849635 1.9856880569 12.5154979577
Si 3.8566549116 2.0133301777 12.5453006207
Si 6.3820674132 6.3645717223 12.5253610945
O 0.7808198097 4.9470123209 13.1335722975
O 5.7802836736 4.9757100963 13.1117183281
O 3.2814662849 0.6152667762 13.1284574194
O 8.3182529718 0.6059603668 13.1371099244
O 8.9687611976 3.1217490388 13.6806081098
O 1.4745604792 7.4443864238 13.7142350287
O 3.9531195336 3.1269675043 13.7259941572
O 6.4813525799 7.4708965373 13.7155336689
Si 9.9414463083 4.2623252279 14.3032931147
Si 2.4151365908 -0.0865878949 14.3107352877
Si 4.9304709205 4.2832466705 14.3127083920
Si 7.4486047940 -0.0841612580 14.3240078143
O 8.9827384958 5.3628789551 15.0215013367
O 1.4321526615 0.9991817636 15.0161408119
O 3.9780415986 5.3840635493 15.0351918455
O 6.4926050112 1.0185322136 15.0407570140
O 0.9333770672 3.6074461392 15.3617128365
O 3.4829076130 7.9971438684 15.3672431379
O 6.0025654054 3.6326248802 15.3510542825
O 8.5049600451 7.9725820278 15.3782656371
Si 1.4683643254 2.2459571543 16.0598793622
Si 4.0050970719 6.6344551695 16.0747893528
Si 6.5123587800 2.2727205379 16.0767814218
Si 9.0207157199 6.6007176115 16.0767609481
O 2.9980237949 2.4124519429 16.5690603841
O 5.5277121518 6.8107690280 16.6051757301
O 8.0304583388 2.4451452539 16.6246129288
O 0.4893021649 6.7603530881 16.6101685882
O 8.0619078133 6.2895763469 17.3532801467
O 5.5395231003 1.9721886518 17.3440365866
O 0.5262390469 1.9376374414 17.3469187163
O 3.0478032192 6.3284610674 17.3498303991
Si 6.5284334403 6.5169088076 17.8595102498
Si 3.9969949200 2.1672840716 17.8343571313
Si 9.0513332683 2.1515134462 17.8638570595
Si 1.5104940560 6.5005194415 17.8569626795
O 6.2058870080 5.1550783095 18.6770250357
O 1.2578431300 5.1081279055 18.6577700230
O 3.7067718078 0.8057039362 18.6687101466
O 8.7582943539 0.7817283470 18.6804127986
H 5.3320177435 4.6755662265 18.7030227666
H 0.3889629244 4.6210417352 18.7168508493
H 7.8958914916 0.2800048969 18.7143162669
H 2.8419362134 0.3130362049 18.7084085161
O 3.9762340017 3.5693124110 18.7089580470
O 6.5570356589 7.9084110688 18.7581241069
O 9.0811605490 3.5359944612 18.7713708273
O 1.4899878257 7.8843061630 18.7625721537
H 3.1135629980 4.0456114498 18.7415246097
H 8.2393757852 4.0407704560 18.7983164721
H 5.7091202393 8.4043985738 18.7877964173
H 0.6343332915 8.3697836831 18.7746444776
Si 5.1229624576 4.6424635125 23.3849973006
Cl 5.8824892215 6.4921433212 23.0429282975
Cl 5.1570521305 3.5656346295 21.6699843179
Cl 3.2073646873 4.8107583165 24.0356727284
Cl 6.2354709727 3.7130292644 24.8077486229
   
