
     Program PWSCF v.6.8 starts on 13Aug2025 at  8:14:17 

     This program is part of the open-source Quantum ESPRESSO suite
     for quantum simulation of materials; please cite
         "P. Giannozzi et al., J. Phys.:Condens. Matter 21 395502 (2009);
         "P. Giannozzi et al., J. Phys.:Condens. Matter 29 465901 (2017);
         "P. Giannozzi et al., J. Chem. Phys. 152 154105 (2020);
          URL http://www.quantum-espresso.org", 
     in publications or presentations arising from this work. More details at
     http://www.quantum-espresso.org/quote

     Parallel version (MPI), running on    32 processors

     MPI processes distributed on     1 nodes
     R & G space division:  proc/nbgrp/npool/nimage =      32
     347640 MiB available memory on the printing compute node when the environment starts
 
     Reading input from pwscf.in

     Current dimensions of program PWSCF are:
     Max number of different atomic species (ntypx) = 10
     Max number of k-points (npk) =  40000
     Max angular momentum in pseudopotentials (lmaxx) =  4
     file O.pbesol-n-kjpaw_psl.0.1.UPF: wavefunction(s)  2P renormalized

     -------------------------------------------------
     Parameters for Dispersion (Grimme-D2) Correction:
     -------------------------------------------------
       atom      VdW radius       C_6     

        H          1.892          4.857
        O          2.536         24.284
        Si         3.243        320.200
        Cl         3.097        175.885

     gamma-point specific algorithms are used

     Subspace diagonalization in iterative solution of the eigenvalue problem:
     one sub-group per band group will be used
     scalapack distributed-memory algorithm (size of sub-group:  5*  5 procs)

 
     Parallelization info
     --------------------
     sticks:   dense  smooth     PW     G-vecs:    dense   smooth      PW
     Min         372     185     45               134676    47598    5939
     Max         374     188     48               134738    47640    5984
     Sum       11959    5957   1483              4310687  1523803  190433
 
     Using Slab Decomposition
 


     bravais-lattice index     =            0
     lattice parameter (alat)  =      19.0023  a.u.
     unit-cell volume          =   24273.0715 (a.u.)^3
     number of atoms/cell      =            5
     number of atomic types    =            4
     number of electrons       =        32.00
     number of Kohn-Sham states=           20
     kinetic-energy cutoff     =      60.0000  Ry
     charge density cutoff     =     480.0000  Ry
     scf convergence threshold =      1.5E-08
     mixing beta               =       0.4000
     number of iterations used =            8  plain     mixing
     Exchange-correlation= SLA  PW   PSX  PSC
                           (   1   4  10   8   0   0   0)

     celldm(1)=  19.002262  celldm(2)=   0.000000  celldm(3)=   0.000000
     celldm(4)=   0.000000  celldm(5)=   0.000000  celldm(6)=   0.000000

     crystal axes: (cart. coord. in units of alat)
               a(1) = (   1.000000   0.000000   0.000000 )  
               a(2) = (   0.000000   0.866025   0.000000 )  
               a(3) = (   0.000000   0.000000   4.084870 )  

     reciprocal axes: (cart. coord. in units 2 pi/alat)
               b(1) = (  1.000000  0.000000  0.000000 )  
               b(2) = (  0.000000  1.154701  0.000000 )  
               b(3) = (  0.000000  0.000000  0.244806 )  


     PseudoPot. # 1 for H  read from file:
     ./pseudo/H.pbesol-rrkjus_psl.1.0.0.UPF
     MD5 check sum: 0324ed591cc0147dc3d88cad0d33f665
     Pseudo is Ultrasoft, Zval =  1.0
     Generated using "atomic" code by A. Dal Corso  v.6.0 svn rev. 13079
     Using radial grid of  929 points,  2 beta functions with: 
                l(1) =   0
                l(2) =   0
     Q(r) pseudized with 0 coefficients 


     PseudoPot. # 2 for O  read from file:
     ./pseudo/O.pbesol-n-kjpaw_psl.0.1.UPF
     MD5 check sum: 81d73d1479e654e5638b0319f0d6c2c7
     Pseudo is Projector augmented-wave + core cor, Zval =  6.0
     Generated using "atomic" code by A. Dal Corso  v.6.0 svn rev. 13079
     Shape of augmentation charge: BESSEL
     Using radial grid of 1095 points,  4 beta functions with: 
                l(1) =   0
                l(2) =   0
                l(3) =   1
                l(4) =   1
     Q(r) pseudized with 0 coefficients 


     PseudoPot. # 3 for Si read from file:
     ./pseudo/Si.pbesol-n-rrkjus_psl.1.0.0.UPF
     MD5 check sum: c4212819de858c94c3a1644338846ac9
     Pseudo is Ultrasoft + core correction, Zval =  4.0
     Generated using "atomic" code by A. Dal Corso  v.6.0 svn rev. 13079
     Using radial grid of 1141 points,  6 beta functions with: 
                l(1) =   0
                l(2) =   0
                l(3) =   1
                l(4) =   1
                l(5) =   2
                l(6) =   2
     Q(r) pseudized with 0 coefficients 


     PseudoPot. # 4 for Cl read from file:
     ./pseudo/cl_pbesol_v1.4.uspp.F.UPF
     MD5 check sum: ed6bbcf06f19043c0df9f6394706ff8f
     Pseudo is Ultrasoft + core correction, Zval =  7.0
     Generated by new atomic code, or converted to UPF format
     Using radial grid of  909 points,  6 beta functions with: 
                l(1) =   0
                l(2) =   0
                l(3) =   1
                l(4) =   1
                l(5) =   2
                l(6) =   2
     Q(r) pseudized with  8 coefficients,  rinner =    1.300   1.300   1.300
                                                       1.300   1.300

     atomic species   valence    mass     pseudopotential
        H              1.00     1.00794     H ( 1.00)
        O              6.00    15.99940     O ( 1.00)
        Si             4.00    28.08550     Si( 1.00)
        Cl             7.00    35.45300     Cl( 1.00)

     No symmetry found


                                    s                        frac. trans.

      isym =  1     identity                                     

 cryst.   s( 1) = (     1          0          0      )
                  (     0          1          0      )
                  (     0          0          1      )

 cart.    s( 1) = (  1.0000000  0.0000000  0.0000000 )
                  (  0.0000000  1.0000000  0.0000000 )
                  (  0.0000000  0.0000000  1.0000000 )


   Cartesian axes

     site n.     atom                  positions (alat units)
         1           Si  tau(   1) = (   0.4506132   0.4297160   2.7202198  )
         2           Cl  tau(   2) = (   0.5828477   0.3876851   2.8664099  )
         3           Cl  tau(   3) = (   0.4141815   0.2644512   2.6094937  )
         4           Cl  tau(   4) = (   0.2777776   0.4945745   2.8008899  )
         5           Cl  tau(   5) = (   0.5278417   0.5716914   2.5991891  )

   Crystallographic axes

     site n.     atom                  positions (cryst. coord.)
         1           Si  tau(   1) = (  0.4506132  0.4961933  0.6659257  )
         2           Cl  tau(   2) = (  0.5828477  0.4476603  0.7017139  )
         3           Cl  tau(   3) = (  0.4141815  0.3053619  0.6388193  )
         4           Cl  tau(   4) = (  0.2777776  0.5710855  0.6856742  )
         5           Cl  tau(   5) = (  0.5278417  0.6601325  0.6362966  )

     number of k points=     1  Marzari-Vanderbilt smearing, width (Ry)=  0.0147
                       cart. coord. in units 2pi/alat
        k(    1) = (   0.0000000   0.0000000   0.0000000), wk =   2.0000000

                       cryst. coord.
        k(    1) = (   0.0000000   0.0000000   0.0000000), wk =   2.0000000

     Dense  grid:  2155344 G-vectors     FFT dimensions: ( 135, 120, 576)

     Smooth grid:   761902 G-vectors     FFT dimensions: (  96,  81, 384)

     Dynamical RAM for                 wfc:       0.91 MB

     Dynamical RAM for     wfc (w. buffer):       0.91 MB

     Dynamical RAM for           str. fact:       4.11 MB

     Dynamical RAM for           local pot:       0.00 MB

     Dynamical RAM for          nlocal pot:       4.09 MB

     Dynamical RAM for                qrad:       7.03 MB

     Dynamical RAM for          rho,v,vnew:       9.76 MB

     Dynamical RAM for               rhoin:       3.25 MB

     Dynamical RAM for            rho*nmix:      16.45 MB

     Dynamical RAM for           G-vectors:       4.04 MB

     Dynamical RAM for          h,s,v(r/c):       0.00 MB

     Dynamical RAM for          <psi|beta>:       0.01 MB

     Dynamical RAM for                 psi:       1.82 MB

     Dynamical RAM for                hpsi:       1.82 MB

     Dynamical RAM for                spsi:       1.82 MB

     Dynamical RAM for      wfcinit/wfcrot:       1.83 MB

     Dynamical RAM for           addusdens:     195.29 MB

     Dynamical RAM for          addusforce:     201.98 MB

     Dynamical RAM for         addusstress:     206.59 MB

     Estimated static dynamical RAM per process >      49.45 MB

     Estimated max dynamical RAM per process >     272.48 MB

     Estimated total dynamical RAM >       8.52 GB

     Initial potential from superposition of free atoms

     starting charge   31.99943, renormalised to   32.00000

     negative rho (up, down):  5.994E-02 0.000E+00
     Starting wfcs are   20 randomized atomic wfcs
     Checking if some PAW data can be deallocated... 
       PAW data deallocated on   32 nodes for type:  2

     total cpu time spent up to now is        6.2 secs

     Self-consistent Calculation

     iteration #  1     ecut=    60.00 Ry     beta= 0.40
     Davidson diagonalization with overlap

---- Real-time Memory Report at c_bands before calling an iterative solver
           441 MiB given to the printing process from OS
             0 MiB allocation reported by mallinfo(arena+hblkhd)
        344862 MiB available memory on the node where the printing process lives
------------------
     ethr =  1.00E-02,  avg # of iterations =  3.0

     Threshold (ethr) on eigenvalues was too large:
     Diagonalizing with lowered threshold

     Davidson diagonalization with overlap

---- Real-time Memory Report at c_bands before calling an iterative solver
           478 MiB given to the printing process from OS
             0 MiB allocation reported by mallinfo(arena+hblkhd)
        344771 MiB available memory on the node where the printing process lives
------------------
     ethr =  3.46E-04,  avg # of iterations =  2.0

     negative rho (up, down):  6.023E-02 0.000E+00

     total cpu time spent up to now is        8.6 secs

     total energy              =    -144.60188703 Ry
     estimated scf accuracy    <       0.11043463 Ry

     iteration #  2     ecut=    60.00 Ry     beta= 0.40
     Davidson diagonalization with overlap

---- Real-time Memory Report at c_bands before calling an iterative solver
           524 MiB given to the printing process from OS
             0 MiB allocation reported by mallinfo(arena+hblkhd)
        343439 MiB available memory on the node where the printing process lives
------------------
     ethr =  3.45E-04,  avg # of iterations =  2.0

     negative rho (up, down):  5.993E-02 0.000E+00

     total cpu time spent up to now is       10.1 secs

     total energy              =    -144.60535611 Ry
     estimated scf accuracy    <       0.01935803 Ry

     iteration #  3     ecut=    60.00 Ry     beta= 0.40
     Davidson diagonalization with overlap

---- Real-time Memory Report at c_bands before calling an iterative solver
           534 MiB given to the printing process from OS
             0 MiB allocation reported by mallinfo(arena+hblkhd)
        342788 MiB available memory on the node where the printing process lives
------------------
     ethr =  6.05E-05,  avg # of iterations =  5.0

     negative rho (up, down):  5.943E-02 0.000E+00

     total cpu time spent up to now is       11.6 secs

     total energy              =    -144.60785927 Ry
     estimated scf accuracy    <       0.00247876 Ry

     iteration #  4     ecut=    60.00 Ry     beta= 0.40
     Davidson diagonalization with overlap

---- Real-time Memory Report at c_bands before calling an iterative solver
           535 MiB given to the printing process from OS
             0 MiB allocation reported by mallinfo(arena+hblkhd)
        343076 MiB available memory on the node where the printing process lives
------------------
     ethr =  7.75E-06,  avg # of iterations =  5.0

     negative rho (up, down):  5.906E-02 0.000E+00

     total cpu time spent up to now is       13.2 secs

     total energy              =    -144.60791749 Ry
     estimated scf accuracy    <       0.00061066 Ry

     iteration #  5     ecut=    60.00 Ry     beta= 0.40
     Davidson diagonalization with overlap

---- Real-time Memory Report at c_bands before calling an iterative solver
           536 MiB given to the printing process from OS
             0 MiB allocation reported by mallinfo(arena+hblkhd)
        342737 MiB available memory on the node where the printing process lives
------------------
     ethr =  1.91E-06,  avg # of iterations = 15.0

     negative rho (up, down):  5.890E-02 0.000E+00

     total cpu time spent up to now is       14.8 secs

     total energy              =    -144.60795558 Ry
     estimated scf accuracy    <       0.00001974 Ry

     iteration #  6     ecut=    60.00 Ry     beta= 0.40
     Davidson diagonalization with overlap

---- Real-time Memory Report at c_bands before calling an iterative solver
           537 MiB given to the printing process from OS
             0 MiB allocation reported by mallinfo(arena+hblkhd)
        342807 MiB available memory on the node where the printing process lives
------------------
     ethr =  6.17E-08,  avg # of iterations =  5.0

     negative rho (up, down):  5.877E-02 0.000E+00

     total cpu time spent up to now is       16.4 secs

     total energy              =    -144.60797347 Ry
     estimated scf accuracy    <       0.00000149 Ry

     iteration #  7     ecut=    60.00 Ry     beta= 0.40
     Davidson diagonalization with overlap

---- Real-time Memory Report at c_bands before calling an iterative solver
           538 MiB given to the printing process from OS
             0 MiB allocation reported by mallinfo(arena+hblkhd)
        342697 MiB available memory on the node where the printing process lives
------------------
     ethr =  4.65E-09,  avg # of iterations =  2.0

     negative rho (up, down):  5.870E-02 0.000E+00

     total cpu time spent up to now is       18.0 secs

     total energy              =    -144.60797372 Ry
     estimated scf accuracy    <       0.00000024 Ry

     iteration #  8     ecut=    60.00 Ry     beta= 0.40
     Davidson diagonalization with overlap

---- Real-time Memory Report at c_bands before calling an iterative solver
           541 MiB given to the printing process from OS
             0 MiB allocation reported by mallinfo(arena+hblkhd)
        342638 MiB available memory on the node where the printing process lives
------------------
     ethr =  7.44E-10,  avg # of iterations =  2.0

     negative rho (up, down):  5.866E-02 0.000E+00

     total cpu time spent up to now is       19.5 secs

     total energy              =    -144.60797383 Ry
     estimated scf accuracy    <       0.00000014 Ry

     iteration #  9     ecut=    60.00 Ry     beta= 0.40
     Davidson diagonalization with overlap

---- Real-time Memory Report at c_bands before calling an iterative solver
           542 MiB given to the printing process from OS
             0 MiB allocation reported by mallinfo(arena+hblkhd)
        342707 MiB available memory on the node where the printing process lives
------------------
     ethr =  4.38E-10,  avg # of iterations =  2.0

     negative rho (up, down):  5.864E-02 0.000E+00

     total cpu time spent up to now is       21.0 secs

     End of self-consistent calculation

          k = 0.0000 0.0000 0.0000 ( 95217 PWs)   bands (ev):

   -22.0737 -20.9096 -20.8821 -20.8361 -13.4914 -10.8293 -10.8177 -10.7809
    -8.8753  -8.8552  -8.6241  -8.6170  -8.6043  -7.8352  -7.8236  -7.7966
    -1.6733  -0.4264  -0.4030  -0.3900

     occupation numbers 
     1.0000   1.0000   1.0000   1.0000   1.0000   1.0000   1.0000   1.0000
     1.0000   1.0000   1.0000   1.0000   1.0000   1.0000   1.0000   1.0000
     0.0000   0.0000   0.0000   0.0000

     the Fermi energy is    -4.8109 ev

!    total energy              =    -144.60797394 Ry
     estimated scf accuracy    <          1.4E-09 Ry
     smearing contrib. (-TS)   =       0.00000000 Ry
     internal energy E=F+TS    =    -144.60797394 Ry

     The total energy is F=E-TS. E is the sum of the following terms:
     one-electron contribution =    -598.83846314 Ry
     hartree contribution      =     302.19101142 Ry
     xc contribution           =     -43.45340971 Ry
     ewald contribution        =     195.50070380 Ry
     Dispersion Correction     =      -0.00781632 Ry
     one-center paw contrib.   =       0.00000000 Ry
      -> PAW hartree energy AE =       0.00000000 Ry
      -> PAW hartree energy PS =       0.00000000 Ry
      -> PAW xc energy AE      =       0.00000000 Ry
      -> PAW xc energy PS      =       0.00000000 Ry
      -> total E_H with PAW    =     302.19101142 Ry
      -> total E_XC with PAW   =     -43.45340971 Ry

     convergence has been achieved in   9 iterations

     negative rho (up, down):  5.864E-02 0.000E+00

     Forces acting on atoms (cartesian axes, Ry/au):

     atom    1 type  3   force =     0.00059690   -0.00224254   -0.00697332
     atom    2 type  4   force =    -0.00014753   -0.00098479    0.00080084
     atom    3 type  4   force =     0.00053019    0.00108341    0.00335124
     atom    4 type  4   force =    -0.00080976    0.00121031    0.00128042
     atom    5 type  4   force =    -0.00016980    0.00093360    0.00154081
     The non-local contrib.  to forces
     atom    1 type  3   force =     0.00064710   -0.00209297   -0.00062771
     atom    2 type  4   force =    -0.15193147    0.04648602   -0.16570391
     atom    3 type  4   force =     0.04427851    0.18827770    0.13108424
     atom    4 type  4   force =     0.19726303   -0.07231149   -0.08973942
     atom    5 type  4   force =    -0.09009083   -0.15942467    0.14050678
     The ionic contribution  to forces
     atom    1 type  3   force =    -0.00698333   -0.02173081    0.07661161
     atom    2 type  4   force =     5.80068209   -1.78723081    8.64278292
     atom    3 type  4   force =    -1.67364424   -6.64013041   -6.46839296
     atom    4 type  4   force =    -7.60177641    2.70505112    4.84408890
     atom    5 type  4   force =     3.48172189    5.74404092   -7.09509046
     The local contribution  to forces
     atom    1 type  3   force =     0.00703004    0.02123919   -0.08299744
     atom    2 type  4   force =    -5.64923732    1.73986866   -8.47660140
     atom    3 type  4   force =     1.63009692    6.45370321    6.34115193
     atom    4 type  4   force =     7.40412349   -2.63168720   -4.75321644
     atom    5 type  4   force =    -3.39211714   -5.58422613    6.95656288
     The core correction contribution to forces
     atom    1 type  3   force =    -0.00009814    0.00033904    0.00003317
     atom    2 type  4   force =    -0.00054047    0.00023462   -0.00066427
     atom    3 type  4   force =     0.00002761    0.00056782    0.00022319
     atom    4 type  4   force =     0.00077470   -0.00034646   -0.00043005
     atom    5 type  4   force =    -0.00022618   -0.00062404    0.00039050
     The Hubbard contrib.    to forces
     atom    1 type  3   force =     0.00000000    0.00000000    0.00000000
     atom    2 type  4   force =     0.00000000    0.00000000    0.00000000
     atom    3 type  4   force =     0.00000000    0.00000000    0.00000000
     atom    4 type  4   force =     0.00000000    0.00000000    0.00000000
     atom    5 type  4   force =     0.00000000    0.00000000    0.00000000
     The SCF correction term to forces
     atom    1 type  3   force =     0.00000059    0.00000126    0.00000827
     atom    2 type  4   force =    -0.00003477    0.00000716   -0.00002000
     atom    3 type  4   force =     0.00000571    0.00000782    0.00001982
     atom    4 type  4   force =     0.00003475   -0.00000691   -0.00000093
     atom    5 type  4   force =    -0.00000564   -0.00000798    0.00002449

     Dispersion contribution to forces:
     atom    1 type  3   force =     0.00000073    0.00000269   -0.00000048
     atom    2 type  4   force =     0.00091451   -0.00034951    0.00100825
     atom    3 type  4   force =    -0.00023422   -0.00134179   -0.00073424
     atom    4 type  4   force =    -0.00122922    0.00051218    0.00057910
     atom    5 type  4   force =     0.00054821    0.00117644   -0.00085264

     Total force =     0.008681     Total SCF correction =     0.000065

     Total Dispersion Force =     0.002982


     Computing stress (Cartesian axis) and pressure


     negative rho (up, down):  5.864E-02 0.000E+00
          total   stress  (Ry/bohr**3)                   (kbar)     P=       -0.00
   0.00000006  -0.00000023  -0.00000010            0.01       -0.03       -0.01
  -0.00000023   0.00000018  -0.00000022           -0.03        0.03       -0.03
  -0.00000010  -0.00000022  -0.00000027           -0.01       -0.03       -0.04

     kinetic stress (kbar)    194.14     -0.00     -0.04
                               -0.00    194.68     -0.04
                               -0.04     -0.04    194.15

     local   stress (kbar)  -2832.43      1.32      0.36
                                1.32  -3024.74      0.75
                                0.36      0.75   1907.32

     nonloc. stress (kbar)    177.92     -0.01     -0.00
                               -0.01    177.89     -0.01
                               -0.00     -0.01    177.89

     hartree stress (kbar)   1364.53     -0.62     -0.18
                               -0.62   1457.91     -0.38
                               -0.18     -0.38   -991.03

     exc-cor stress (kbar)     52.09      0.00      0.00
                                0.00     52.09      0.00
                                0.00      0.00     52.09

     corecor stress (kbar)   -113.15      0.00      0.00
                                0.00   -113.15      0.00
                                0.00      0.00   -113.15

     ewald   stress (kbar)   1156.87     -0.72     -0.15
                               -0.72   1255.31     -0.35
                               -0.15     -0.35  -1227.36

     hubbard stress (kbar)      0.00      0.00      0.00
                                0.00      0.00      0.00
                                0.00      0.00      0.00

     DFT-D   stress (kbar)      0.04      0.00     -0.00
                                0.00      0.04     -0.00
                               -0.00     -0.00      0.04

     XDM     stress (kbar)      0.00      0.00      0.00
                                0.00      0.00      0.00
                                0.00      0.00      0.00

     dft-nl  stress (kbar)      0.00      0.00      0.00
                                0.00      0.00      0.00
                                0.00      0.00      0.00

     TS-vdW  stress (kbar)      0.00      0.00      0.00
                                0.00      0.00      0.00
                                0.00      0.00      0.00


                                0.00      0.00      0.00
                                0.00      0.00      0.00


                                0.00      0.00      0.00


     Writing output data file ./out/aiida.save/
 
     init_run     :      5.21s CPU      5.79s WALL (       1 calls)
     electrons    :     12.57s CPU     15.00s WALL (       1 calls)
     forces       :      2.89s CPU      3.03s WALL (       1 calls)
     force_london :      0.00s CPU      0.00s WALL (       1 calls)
     stress       :      7.49s CPU      7.90s WALL (       1 calls)
     stres_london :      0.00s CPU      0.00s WALL (       1 calls)

     Called by init_run:
     wfcinit      :      0.05s CPU      0.09s WALL (       1 calls)
     wfcinit:atom :      0.00s CPU      0.00s WALL (       1 calls)
     wfcinit:wfcr :      0.04s CPU      0.08s WALL (       1 calls)
     potinit      :      1.92s CPU      1.98s WALL (       1 calls)
     hinit0       :      2.14s CPU      2.46s WALL (       1 calls)

     Called by electrons:
     c_bands      :      1.46s CPU      1.51s WALL (      10 calls)
     sum_band     :      5.68s CPU      6.79s WALL (      10 calls)
     v_of_rho     :      1.56s CPU      1.73s WALL (      10 calls)
     v_h          :      0.15s CPU      0.18s WALL (      10 calls)
     v_xc         :      1.69s CPU      1.86s WALL (      12 calls)
     newd         :      3.83s CPU      4.89s WALL (      10 calls)
     PAW_pot      :      0.01s CPU      0.01s WALL (      10 calls)
     mix_rho      :      0.30s CPU      0.33s WALL (      10 calls)
     energy_londo :      0.00s CPU      0.00s WALL (       1 calls)

     Called by c_bands:
     init_us_2    :      0.03s CPU      0.04s WALL (      21 calls)
     regterg      :      1.32s CPU      1.36s WALL (      10 calls)

     Called by sum_band:
     sum_band:wei :      0.00s CPU      0.00s WALL (      10 calls)
     sum_band:loo :      0.26s CPU      0.27s WALL (      10 calls)
     sum_band:buf :      0.00s CPU      0.00s WALL (      10 calls)
     sum_band:ini :      0.02s CPU      0.02s WALL (      10 calls)
     sum_band:cal :      0.01s CPU      0.01s WALL (      10 calls)
     sum_band:bec :      0.00s CPU      0.00s WALL (      10 calls)
     addusdens    :      5.17s CPU      6.24s WALL (      10 calls)
     addusd:skk   :      0.01s CPU      0.03s WALL (      40 calls)
     addusd:dgemm :      1.36s CPU      2.34s WALL (      40 calls)
     addusd:qvan2 :      3.61s CPU      3.66s WALL (      40 calls)

     Called by *egterg:
     rdiaghg      :      0.11s CPU      0.13s WALL (      52 calls)
     regterg:over :      0.05s CPU      0.05s WALL (      43 calls)
     regterg:upda :      0.04s CPU      0.04s WALL (      43 calls)
     regterg:last :      0.06s CPU      0.06s WALL (      23 calls)
     rdiaghg:chol :      0.01s CPU      0.02s WALL (      52 calls)
     rdiaghg:inve :      0.00s CPU      0.00s WALL (      52 calls)
     rdiaghg:para :      0.01s CPU      0.01s WALL (     104 calls)
     h_psi        :      1.00s CPU      1.03s WALL (      54 calls)
     s_psi        :      0.05s CPU      0.05s WALL (      54 calls)
     g_psi        :      0.00s CPU      0.00s WALL (      43 calls)

     Called by h_psi:
     h_psi:calbec :      0.06s CPU      0.06s WALL (      54 calls)
     vloc_psi     :      0.88s CPU      0.91s WALL (      54 calls)
     add_vuspsi   :      0.05s CPU      0.06s WALL (      54 calls)

     General routines
     calbec       :      0.08s CPU      0.08s WALL (      69 calls)
     fft          :      1.75s CPU      1.97s WALL (     129 calls)
     ffts         :      0.05s CPU      0.06s WALL (      20 calls)
     fftw         :      0.61s CPU      0.62s WALL (     696 calls)
     interpolate  :      0.16s CPU      0.18s WALL (      10 calls)
 
     Parallel routines

     PAW routines
     PAW_pot      :      0.01s CPU      0.01s WALL (      10 calls)
 
     PWSCF        :     28.45s CPU     32.55s WALL

 
   This run was terminated on:   8:14:50  13Aug2025            

=------------------------------------------------------------------------------=
   JOB DONE.
=------------------------------------------------------------------------------=
