DIM-GROUP   
3 1  
PRIMVEC   
10.0555639621 0.0000000000 0.0000000000 
0.0000000000 8.7083697802 0.0000000000 
0.0000000000 0.0000000000 41.0756715617 
   
PRIMCOORD   
87 1  
H 5.6120308029 0.7258786635 9.5301983452
H 1.5009026473 1.5021969538 8.7168178498
H 8.3152245952 5.5754076147 8.9266273763
H 4.5423211097 5.7423460645 8.8910826915
H 4.9239188793 4.1027572538 10.1761556163
H -0.0695893844 4.1343905652 9.9865465248
H 2.4430911006 8.5062758328 10.0170308755
H 7.5251709513 8.6274431774 10.1114574661
O 1.4335400000 1.1984700000 9.6339000000
O 6.4612300000 1.1984100000 9.6339600000
O 3.9473300000 5.5525700000 9.6340000000
O 8.9750000000 5.5525400000 9.6340000000
O 3.3265200000 8.0971500000 10.1805100000
O 8.3542800000 8.0971400000 10.1805200000
O 0.8125600000 3.7430200000 10.1805300000
O 5.8403400000 3.7429800000 10.1806000000
Si 1.3432600000 2.3361100000 10.7928300000
Si 3.8572300000 6.6902700000 10.7928700000
Si 8.8849600000 6.6902500000 10.7928800000
Si 6.3709900000 2.3360400000 10.7929000000
O 0.3452296583 6.8213282392 11.3552034062
O 2.8420740779 2.5838943107 11.3833709275
O 5.3564550694 6.9580833868 11.3886607860
O 7.8845898947 2.5129211478 11.3647907039
O 0.3465125548 1.7345541121 11.9430103085
O 2.8565221545 6.0627408157 11.9151016097
O 5.3417669536 1.7569500121 11.9255750683
O 7.8741081026 6.1620305201 11.9700939992
Si 1.3619949921 6.3064278411 12.5145375405
Si 8.9068077161 1.9939126769 12.5341093409
Si 3.8547849106 2.0213593223 12.5280907530
Si 6.3792610232 6.4168890775 12.5481045434
O 0.8041074797 4.9295052081 13.1616092482
O 5.8071430935 5.0089563111 13.1181544125
O 3.2598369204 0.6212856020 13.0842581120
O 8.3377819290 0.6164927494 13.1752160934
O 8.9795004171 3.1283891832 13.7014602104
O 1.4377991449 7.4522979243 13.6656576028
O 3.9779641289 3.1259303557 13.7109754261
O 6.4565831219 7.5344905702 13.7329111336
Si 9.9518117265 4.2641504402 14.3334345855
Si 2.3779714655 -0.0755932841 14.2540787197
Si 4.9372229233 4.2994061624 14.2931458345
Si 7.4567270693 -0.0567135802 14.3650430857
O 8.9982260443 5.3648047291 15.0593408228
O 1.3872319874 1.0176290698 14.9276629363
O 3.9320799292 5.3931283063 14.9553412424
O 6.5390674203 1.0583346207 15.1173559324
O 0.9238919030 3.6033667233 15.4085829274
O 3.4279478317 8.0048758212 15.3230768240
O 6.0079285444 3.6719135228 15.3468697495
O 8.5093172588 7.9647313768 15.4060930203
Si 1.4406957218 2.2010200102 16.0401422652
Si 3.9630734671 6.6354640771 15.9991884548
Si 6.5064536034 2.3386274290 16.1305437398
Si 8.9984925856 6.5920945253 16.1245171479
O 2.9693270683 2.3219264085 16.5636536636
O 5.5090208395 6.8189267440 16.4590925311
O 8.0063739250 2.5517558970 16.7277262055
O 0.4380165003 6.7209114726 16.7374874512
O 7.9642344873 6.3042884053 17.3554018756
O 5.4975082282 2.0926229772 17.3755902143
O 0.4771627221 1.8026396077 17.2859523379
O 3.0393577451 6.2902270969 17.2816804070
Si 6.4442767528 6.6823657875 17.7713142089
Si 3.9368821738 2.0355860193 17.8510797176
Si 9.0558126588 2.1019902164 17.8973944308
Si 1.5425169406 6.4056388139 17.8971468028
O 5.8945827041 5.4502914129 18.7039071326
O 1.3477311064 4.9938509488 18.6759646659
O 3.8820205944 0.4938376001 18.4204192521
O 8.6447668214 0.7708842014 18.7154597883
H 0.4878465466 4.4880929970 18.7790041119
H 7.7469216963 0.3248203068 18.6749725950
H 3.0312036318 0.0330970186 18.6639421160
O 3.6074298240 3.1405938197 18.9945369659
O 6.3986667866 8.1044597876 18.5837514330
O 9.3071880512 3.4040285859 18.8933037868
O 1.5874505805 7.7481264889 18.8655684212
H 2.8814353157 3.7917681757 18.8401590495
H 8.5996457367 3.5581648921 19.5519897625
H 5.4930464407 8.5413957495 18.5725220711
H 0.7597446383 8.2703157651 18.8992666091
Si 5.9379604940 5.0855272112 20.2763015159
Cl 7.4087323811 6.1692910852 21.1915623375
Cl 4.1635934332 5.4742468159 21.1566824239
Cl 6.4681688733 3.1226491422 20.4866375411
   
