
     Program PWSCF v.6.8 starts on 13Aug2025 at  8:13:57 

     This program is part of the open-source Quantum ESPRESSO suite
     for quantum simulation of materials; please cite
         "P. Giannozzi et al., J. Phys.:Condens. Matter 21 395502 (2009);
         "P. Giannozzi et al., J. Phys.:Condens. Matter 29 465901 (2017);
         "P. Giannozzi et al., J. Chem. Phys. 152 154105 (2020);
          URL http://www.quantum-espresso.org", 
     in publications or presentations arising from this work. More details at
     http://www.quantum-espresso.org/quote

     Parallel version (MPI), running on    32 processors

     MPI processes distributed on     1 nodes
     R & G space division:  proc/nbgrp/npool/nimage =      32
     375179 MiB available memory on the printing compute node when the environment starts
 
     Reading input from pwscf.in

     Current dimensions of program PWSCF are:
     Max number of different atomic species (ntypx) = 10
     Max number of k-points (npk) =  40000
     Max angular momentum in pseudopotentials (lmaxx) =  4
     file O.pbesol-n-kjpaw_psl.0.1.UPF: wavefunction(s)  2P renormalized

     -------------------------------------------------
     Parameters for Dispersion (Grimme-D2) Correction:
     -------------------------------------------------
       atom      VdW radius       C_6     

        H          1.892          4.857
        O          2.536         24.284
        Si         3.243        320.200
        Cl         3.097        175.885

     gamma-point specific algorithms are used

     Subspace diagonalization in iterative solution of the eigenvalue problem:
     one sub-group per band group will be used
     scalapack distributed-memory algorithm (size of sub-group:  5*  5 procs)

 
     Parallelization info
     --------------------
     sticks:   dense  smooth     PW     G-vecs:    dense   smooth      PW
     Min         372     185     45               134676    47598    5939
     Max         374     188     48               134738    47640    5984
     Sum       11959    5957   1483              4310687  1523803  190433
 
     Using Slab Decomposition
 


     bravais-lattice index     =            0
     lattice parameter (alat)  =      19.0023  a.u.
     unit-cell volume          =   24273.0715 (a.u.)^3
     number of atoms/cell      =           87
     number of atomic types    =            4
     number of electrons       =       408.00
     number of Kohn-Sham states=          245
     kinetic-energy cutoff     =      60.0000  Ry
     charge density cutoff     =     480.0000  Ry
     scf convergence threshold =      1.5E-08
     mixing beta               =       0.4000
     number of iterations used =            8  plain     mixing
     Exchange-correlation= SLA  PW   PSX  PSC
                           (   1   4  10   8   0   0   0)

     celldm(1)=  19.002262  celldm(2)=   0.000000  celldm(3)=   0.000000
     celldm(4)=   0.000000  celldm(5)=   0.000000  celldm(6)=   0.000000

     crystal axes: (cart. coord. in units of alat)
               a(1) = (   1.000000   0.000000   0.000000 )  
               a(2) = (   0.000000   0.866025   0.000000 )  
               a(3) = (   0.000000   0.000000   4.084870 )  

     reciprocal axes: (cart. coord. in units 2 pi/alat)
               b(1) = (  1.000000  0.000000  0.000000 )  
               b(2) = (  0.000000  1.154701  0.000000 )  
               b(3) = (  0.000000  0.000000  0.244806 )  


     PseudoPot. # 1 for H  read from file:
     ./pseudo/H.pbesol-rrkjus_psl.1.0.0.UPF
     MD5 check sum: 0324ed591cc0147dc3d88cad0d33f665
     Pseudo is Ultrasoft, Zval =  1.0
     Generated using "atomic" code by A. Dal Corso  v.6.0 svn rev. 13079
     Using radial grid of  929 points,  2 beta functions with: 
                l(1) =   0
                l(2) =   0
     Q(r) pseudized with 0 coefficients 


     PseudoPot. # 2 for O  read from file:
     ./pseudo/O.pbesol-n-kjpaw_psl.0.1.UPF
     MD5 check sum: 81d73d1479e654e5638b0319f0d6c2c7
     Pseudo is Projector augmented-wave + core cor, Zval =  6.0
     Generated using "atomic" code by A. Dal Corso  v.6.0 svn rev. 13079
     Shape of augmentation charge: BESSEL
     Using radial grid of 1095 points,  4 beta functions with: 
                l(1) =   0
                l(2) =   0
                l(3) =   1
                l(4) =   1
     Q(r) pseudized with 0 coefficients 


     PseudoPot. # 3 for Si read from file:
     ./pseudo/Si.pbesol-n-rrkjus_psl.1.0.0.UPF
     MD5 check sum: c4212819de858c94c3a1644338846ac9
     Pseudo is Ultrasoft + core correction, Zval =  4.0
     Generated using "atomic" code by A. Dal Corso  v.6.0 svn rev. 13079
     Using radial grid of 1141 points,  6 beta functions with: 
                l(1) =   0
                l(2) =   0
                l(3) =   1
                l(4) =   1
                l(5) =   2
                l(6) =   2
     Q(r) pseudized with 0 coefficients 


     PseudoPot. # 4 for Cl read from file:
     ./pseudo/cl_pbesol_v1.4.uspp.F.UPF
     MD5 check sum: ed6bbcf06f19043c0df9f6394706ff8f
     Pseudo is Ultrasoft + core correction, Zval =  7.0
     Generated by new atomic code, or converted to UPF format
     Using radial grid of  909 points,  6 beta functions with: 
                l(1) =   0
                l(2) =   0
                l(3) =   1
                l(4) =   1
                l(5) =   2
                l(6) =   2
     Q(r) pseudized with  8 coefficients,  rinner =    1.300   1.300   1.300
                                                       1.300   1.300

     atomic species   valence    mass     pseudopotential
        H              1.00     1.00794     H ( 1.00)
        O              6.00    15.99940     O ( 1.00)
        Si             4.00    28.08550     Si( 1.00)
        Cl             7.00    35.45300     Cl( 1.00)

     No symmetry found


                                    s                        frac. trans.

      isym =  1     identity                                     

 cryst.   s( 1) = (     1          0          0      )
                  (     0          1          0      )
                  (     0          0          1      )

 cart.    s( 1) = (  1.0000000  0.0000000  0.0000000 )
                  (  0.0000000  1.0000000  0.0000000 )
                  (  0.0000000  0.0000000  1.0000000 )


   Cartesian axes

     site n.     atom                  positions (alat units)
         1           H   tau(   1) = (   0.5581020   0.0721868   0.9477537  )
         2           H   tau(   2) = (   0.1492609   0.1493896   0.8668651  )
         3           H   tau(   3) = (   0.8269277   0.5544600   0.8877302  )
         4           H   tau(   4) = (   0.4517222   0.5710616   0.8841953  )
         5           H   tau(   5) = (   0.4896711   0.4080087   1.0119925  )
         6           H   tau(   6) = (  -0.0069205   0.4111545   0.9931364  )
         7           H   tau(   7) = (   0.2429591   0.8459273   0.9961680  )
         8           H   tau(   8) = (   0.7483589   0.8579771   1.0055585  )
         9           O   tau(   9) = (   0.1425619   0.1191848   0.9580666  )
        10           O   tau(  10) = (   0.6425527   0.1191788   0.9580726  )
        11           O   tau(  11) = (   0.3925518   0.5521888   0.9580765  )
        12           O   tau(  12) = (   0.8925407   0.5521858   0.9580765  )
        13           O   tau(  13) = (   0.3308139   0.8052408   1.0124256  )
        14           O   tau(  14) = (   0.8308117   0.8052398   1.0124266  )
        15           O   tau(  15) = (   0.0808070   0.3722337   1.0124275  )
        16           O   tau(  16) = (   0.5808068   0.3722297   1.0124345  )
        17           Si  tau(  17) = (   0.1335838   0.2323201   1.0733192  )
        18           Si  tau(  18) = (   0.3835916   0.6653302   1.0733232  )
        19           Si  tau(  19) = (   0.8835864   0.6653282   1.0733242  )
        20           Si  tau(  20) = (   0.6335786   0.2323132   1.0733262  )
        21           O   tau(  21) = (   0.0343322   0.6783636   1.1292458  )
        22           O   tau(  22) = (   0.2826370   0.2569616   1.1320470  )
        23           O   tau(  23) = (   0.5326857   0.6919635   1.1325730  )
        24           O   tau(  24) = (   0.7841022   0.2499036   1.1301992  )
        25           O   tau(  25) = (   0.0344598   0.1724969   1.1877017  )
        26           O   tau(  26) = (   0.2840738   0.6029240   1.1849262  )
        27           O   tau(  27) = (   0.5312250   0.1747242   1.1859678  )
        28           O   tau(  28) = (   0.7830598   0.6127981   1.1903951  )
        29           Si  tau(  29) = (   0.1354469   0.6271580   1.2445386  )
        30           Si  tau(  30) = (   0.8857591   0.1982895   1.2464850  )
        31           Si  tau(  31) = (   0.3833485   0.2010190   1.2458864  )
        32           Si  tau(  32) = (   0.6344011   0.6381431   1.2478768  )
        33           O   tau(  33) = (   0.0799664   0.4902266   1.3088882  )
        34           O   tau(  34) = (   0.5775055   0.4981278   1.3045667  )
        35           O   tau(  35) = (   0.3241824   0.0617853   1.3011958  )
        36           O   tau(  36) = (   0.8291710   0.0613086   1.3102414  )
        37           O   tau(  37) = (   0.8929882   0.3111103   1.3625750  )
        38           O   tau(  38) = (   0.1429854   0.7411119   1.3590145  )
        39           O   tau(  39) = (   0.3955983   0.3108657   1.3635213  )
        40           O   tau(  40) = (   0.6420906   0.7492857   1.3657027  )
        41           Si  tau(  41) = (   0.9896821   0.4240588   1.4254232  )
        42           Si  tau(  42) = (   0.2364832  -0.0075176   1.4175315  )
        43           Si  tau(  43) = (   0.4909941   0.4275649   1.4214166  )
        44           Si  tau(  44) = (   0.7415523  -0.0056400   1.4285666  )
        45           O   tau(  45) = (   0.8948505   0.5335160   1.4976127  )
        46           O   tau(  46) = (   0.1379567   0.1012006   1.4845177  )
        47           O   tau(  47) = (   0.3910352   0.5363328   1.4872703  )
        48           O   tau(  48) = (   0.6502935   0.1052487   1.5033822  )
        49           O   tau(  49) = (   0.0918787   0.3583456   1.5323440  )
        50           O   tau(  50) = (   0.3409006   0.7960643   1.5238406  )
        51           O   tau(  51) = (   0.5974731   0.3651624   1.5262068  )
        52           O   tau(  52) = (   0.8462297   0.7920721   1.5320964  )
        53           Si  tau(  53) = (   0.1432735   0.2188858   1.5951509  )
        54           Si  tau(  54) = (   0.3941175   0.6598799   1.5910782  )
        55           Si  tau(  55) = (   0.6470501   0.2325705   1.6041411  )
        56           Si  tau(  56) = (   0.8948770   0.6555669   1.6035418  )
        57           O   tau(  57) = (   0.2952919   0.2309096   1.6472128  )
        58           O   tau(  58) = (   0.5478580   0.6781247   1.6368145  )
        59           O   tau(  59) = (   0.7962133   0.2537656   1.6635294  )
        60           O   tau(  60) = (   0.0435596   0.6683774   1.6645001  )
        61           O   tau(  61) = (   0.7920227   0.6269453   1.7259501  )
        62           O   tau(  62) = (   0.5467131   0.2081060   1.7279578  )
        63           O   tau(  63) = (   0.0474526   0.1792679   1.7190435  )
        64           O   tau(  64) = (   0.3022563   0.6255469   1.7186187  )
        65           Si  tau(  65) = (   0.6408668   0.6645441   1.7673115  )
        66           Si  tau(  66) = (   0.3915128   0.2024338   1.7752440  )
        67           Si  tau(  67) = (   0.9005773   0.2090375   1.7798499  )
        68           Si  tau(  68) = (   0.1533993   0.6370243   1.7798253  )
        69           O   tau(  69) = (   0.5862011   0.5420175   1.8600555  )
        70           O   tau(  70) = (   0.1340284   0.4966256   1.8572767  )
        71           O   tau(  71) = (   0.3860570   0.0491109   1.8318634  )
        72           O   tau(  72) = (   0.8596998   0.0766625   1.8612044  )
        73           H   tau(  73) = (   0.0485151   0.4463293   1.8675237  )
        74           H   tau(  74) = (   0.7704115   0.0323025   1.8571780  )
        75           H   tau(  75) = (   0.3014454   0.0032914   1.8560811  )
        76           O   tau(  76) = (   0.3587496   0.3123240   1.8889579  )
        77           O   tau(  77) = (   0.6363310   0.8059677   1.8481063  )
        78           O   tau(  78) = (   0.9255759   0.3385219   1.8788905  )
        79           O   tau(  79) = (   0.1578679   0.7705313   1.8761323  )
        80           H   tau(  80) = (   0.2865513   0.3770816   1.8736054  )
        81           H   tau(  81) = (   0.8552127   0.3538504   1.9443951  )
        82           H   tau(  82) = (   0.5462694   0.8494199   1.8469896  )
        83           H   tau(  83) = (   0.0755547   0.8224617   1.8794835  )
        84           Si  tau(  84) = (   0.5905149   0.5057426   2.0164261  )
        85           Cl  tau(  85) = (   0.7367794   0.6135201   2.1074464  )
        86           Cl  tau(  86) = (   0.4140587   0.5443998   2.1039777  )
        87           Cl  tau(  87) = (   0.6432428   0.3105394   2.0373435  )

   Crystallographic axes

     site n.     atom                  positions (cryst. coord.)
         1           H   tau(   1) = (  0.5581020  0.0833541  0.2320156  )
         2           H   tau(   2) = (  0.1492609  0.1725003  0.2122136  )
         3           H   tau(   3) = (  0.8269277  0.6402353  0.2173215  )
         4           H   tau(   4) = (  0.4517222  0.6594052  0.2164562  )
         5           H   tau(   5) = (  0.4896711  0.4711279  0.2477417  )
         6           H   tau(   6) = ( -0.0069205  0.4747604  0.2431256  )
         7           H   tau(   7) = (  0.2429591  0.9767928  0.2438677  )
         8           H   tau(   8) = (  0.7483589  0.9907067  0.2461666  )
         9           O   tau(   9) = (  0.1425619  0.1376227  0.2345403  )
        10           O   tau(  10) = (  0.6425527  0.1376158  0.2345418  )
        11           O   tau(  11) = (  0.3925518  0.6376128  0.2345427  )
        12           O   tau(  12) = (  0.8925407  0.6376093  0.2345427  )
        13           O   tau(  13) = (  0.3308139  0.9298120  0.2478477  )
        14           O   tau(  14) = (  0.8308117  0.9298109  0.2478479  )
        15           O   tau(  15) = (  0.0808070  0.4298185  0.2478482  )
        16           O   tau(  16) = (  0.5808068  0.4298139  0.2478499  )
        17           Si  tau(  17) = (  0.1335838  0.2682602  0.2627548  )
        18           Si  tau(  18) = (  0.3835916  0.7682572  0.2627558  )
        19           Si  tau(  19) = (  0.8835864  0.7682549  0.2627560  )
        20           Si  tau(  20) = (  0.6335786  0.2682522  0.2627565  )
        21           O   tau(  21) = (  0.0343322  0.7833069  0.2764460  )
        22           O   tau(  22) = (  0.2826370  0.2967138  0.2771317  )
        23           O   tau(  23) = (  0.5326857  0.7990107  0.2772605  )
        24           O   tau(  24) = (  0.7841022  0.2885638  0.2766794  )
        25           O   tau(  25) = (  0.0344598  0.1991823  0.2907563  )
        26           O   tau(  26) = (  0.2840738  0.6961967  0.2900769  )
        27           O   tau(  27) = (  0.5312250  0.2017541  0.2903318  )
        28           O   tau(  28) = (  0.7830598  0.7075984  0.2914157  )
        29           Si  tau(  29) = (  0.1354469  0.7241798  0.3046703  )
        30           Si  tau(  30) = (  0.8857591  0.2289650  0.3051468  )
        31           Si  tau(  31) = (  0.3833485  0.2321168  0.3050003  )
        32           Si  tau(  32) = (  0.6344011  0.7368643  0.3054875  )
        33           O   tau(  33) = (  0.0799664  0.5660650  0.3204235  )
        34           O   tau(  34) = (  0.5775055  0.5751885  0.3193655  )
        35           O   tau(  35) = (  0.3241824  0.0713435  0.3185403  )
        36           O   tau(  36) = (  0.8291710  0.0707931  0.3207547  )
        37           O   tau(  37) = (  0.8929882  0.3592392  0.3335663  )
        38           O   tau(  38) = (  0.1429854  0.8557624  0.3326947  )
        39           O   tau(  39) = (  0.3955983  0.3589569  0.3337980  )
        40           O   tau(  40) = (  0.6420906  0.8652007  0.3343320  )
        41           Si  tau(  41) = (  0.9896821  0.4896610  0.3489519  )
        42           Si  tau(  42) = (  0.2364832 -0.0086805  0.3470200  )
        43           Si  tau(  43) = (  0.4909941  0.4937095  0.3479711  )
        44           Si  tau(  44) = (  0.7415523 -0.0065125  0.3497214  )
        45           O   tau(  45) = (  0.8948505  0.6160513  0.3666243  )
        46           O   tau(  46) = (  0.1379567  0.1168564  0.3634186  )
        47           O   tau(  47) = (  0.3910352  0.6193038  0.3640924  )
        48           O   tau(  48) = (  0.6502935  0.1215307  0.3680367  )
        49           O   tau(  49) = (  0.0918787  0.4137819  0.3751267  )
        50           O   tau(  50) = (  0.3409006  0.9192160  0.3730451  )
        51           O   tau(  51) = (  0.5974731  0.4216532  0.3736243  )
        52           O   tau(  52) = (  0.8462297  0.9146061  0.3750661  )
        53           Si  tau(  53) = (  0.1432735  0.2527476  0.3905022  )
        54           Si  tau(  54) = (  0.3941175  0.7619637  0.3895052  )
        55           Si  tau(  55) = (  0.6470501  0.2685493  0.3927031  )
        56           Si  tau(  56) = (  0.8948770  0.7569835  0.3925564  )
        57           O   tau(  57) = (  0.2952919  0.2666315  0.4032473  )
        58           O   tau(  58) = (  0.5478580  0.7830311  0.4007017  )
        59           O   tau(  59) = (  0.7962133  0.2930233  0.4072417  )
        60           O   tau(  60) = (  0.0435596  0.7717758  0.4074793  )
        61           O   tau(  61) = (  0.7920227  0.7239341  0.4225227  )
        62           O   tau(  62) = (  0.5467131  0.2403001  0.4230141  )
        63           O   tau(  63) = (  0.0474526  0.2070007  0.4208319  )
        64           O   tau(  64) = (  0.3022563  0.7223194  0.4207279  )
        65           Si  tau(  65) = (  0.6408668  0.7673495  0.4326482  )
        66           Si  tau(  66) = (  0.3915128  0.2337504  0.4345901  )
        67           Si  tau(  67) = (  0.9005773  0.2413758  0.4357176  )
        68           Si  tau(  68) = (  0.1533993  0.7355724  0.4357116  )
        69           O   tau(  69) = (  0.5862011  0.6258679  0.4553524  )
        70           O   tau(  70) = (  0.1340284  0.5734540  0.4546722  )
        71           O   tau(  71) = (  0.3860570  0.0567084  0.4484508  )
        72           O   tau(  72) = (  0.8596998  0.0885222  0.4556337  )
        73           H   tau(  73) = (  0.0485151  0.5153768  0.4571807  )
        74           H   tau(  74) = (  0.7704115  0.0372998  0.4546480  )
        75           H   tau(  75) = (  0.3014454  0.0038006  0.4543795  )
        76           O   tau(  76) = (  0.3587496  0.3606407  0.4624279  )
        77           O   tau(  77) = (  0.6363310  0.9306514  0.4524272  )
        78           O   tau(  78) = (  0.9255759  0.3908915  0.4599634  )
        79           O   tau(  79) = (  0.1578679  0.8897330  0.4592881  )
        80           H   tau(  80) = (  0.2865513  0.4354164  0.4586695  )
        81           H   tau(  81) = (  0.8552127  0.4085912  0.4759993  )
        82           H   tau(  82) = (  0.5462694  0.9808257  0.4521538  )
        83           H   tau(  83) = (  0.0755547  0.9496970  0.4601085  )
        84           Si  tau(  84) = (  0.5905149  0.5839813  0.4936329  )
        85           Cl  tau(  85) = (  0.7367794  0.7084321  0.5159152  )
        86           Cl  tau(  86) = (  0.4140587  0.6286188  0.5150660  )
        87           Cl  tau(  87) = (  0.6432428  0.3585801  0.4987536  )

     number of k points=     1  Marzari-Vanderbilt smearing, width (Ry)=  0.0147
                       cart. coord. in units 2pi/alat
        k(    1) = (   0.0000000   0.0000000   0.0000000), wk =   2.0000000

                       cryst. coord.
        k(    1) = (   0.0000000   0.0000000   0.0000000), wk =   2.0000000

     Dense  grid:  2155344 G-vectors     FFT dimensions: ( 135, 120, 576)

     Smooth grid:   761902 G-vectors     FFT dimensions: (  96,  81, 384)

     Dynamical RAM for                 wfc:      11.13 MB

     Dynamical RAM for     wfc (w. buffer):      11.13 MB

     Dynamical RAM for           str. fact:       4.11 MB

     Dynamical RAM for           local pot:       0.00 MB

     Dynamical RAM for          nlocal pot:      38.42 MB

     Dynamical RAM for                qrad:       7.03 MB

     Dynamical RAM for          rho,v,vnew:       9.76 MB

     Dynamical RAM for               rhoin:       3.25 MB

     Dynamical RAM for            rho*nmix:      16.45 MB

     Dynamical RAM for           G-vectors:       4.04 MB

     Dynamical RAM for          h,s,v(r/c):       0.22 MB

     Dynamical RAM for          <psi|beta>:       1.58 MB

     Dynamical RAM for                 psi:      22.25 MB

     Dynamical RAM for                hpsi:      22.25 MB

     Dynamical RAM for                spsi:      22.25 MB

     Dynamical RAM for      wfcinit/wfcrot:      29.62 MB

     Dynamical RAM for           addusdens:     240.51 MB

     Dynamical RAM for          addusforce:     337.83 MB

     Dynamical RAM for         addusstress:     206.59 MB

     Estimated static dynamical RAM per process >      93.99 MB

     Estimated max dynamical RAM per process >     448.26 MB

     Estimated total dynamical RAM >      14.01 GB

     Initial potential from superposition of free atoms

     starting charge  407.98840, renormalised to  408.00000

     negative rho (up, down):  4.729E-02 0.000E+00
     Starting wfcs are  303 randomized atomic wfcs
     Checking if some PAW data can be deallocated... 
       PAW data deallocated on    7 nodes for type:  2

     total cpu time spent up to now is        7.2 secs

     Self-consistent Calculation

     iteration #  1     ecut=    60.00 Ry     beta= 0.40
     Davidson diagonalization with overlap

---- Real-time Memory Report at c_bands before calling an iterative solver
           464 MiB given to the printing process from OS
             0 MiB allocation reported by mallinfo(arena+hblkhd)
        370302 MiB available memory on the node where the printing process lives
------------------
     ethr =  1.00E-02,  avg # of iterations =  3.0

     negative rho (up, down):  4.848E-02 0.000E+00

     total cpu time spent up to now is       11.9 secs

     total energy              =   -2334.64730246 Ry
     estimated scf accuracy    <      17.69429184 Ry

     iteration #  2     ecut=    60.00 Ry     beta= 0.40
     Davidson diagonalization with overlap

---- Real-time Memory Report at c_bands before calling an iterative solver
           632 MiB given to the printing process from OS
             0 MiB allocation reported by mallinfo(arena+hblkhd)
        368705 MiB available memory on the node where the printing process lives
------------------
     ethr =  4.34E-03,  avg # of iterations =  2.0

     negative rho (up, down):  4.872E-02 0.000E+00

     total cpu time spent up to now is       16.1 secs

     total energy              =   -2338.75424133 Ry
     estimated scf accuracy    <       0.63498801 Ry

     iteration #  3     ecut=    60.00 Ry     beta= 0.40
     Davidson diagonalization with overlap

---- Real-time Memory Report at c_bands before calling an iterative solver
           714 MiB given to the printing process from OS
             0 MiB allocation reported by mallinfo(arena+hblkhd)
        368318 MiB available memory on the node where the printing process lives
------------------
     ethr =  1.56E-04,  avg # of iterations = 18.0

     negative rho (up, down):  4.852E-02 0.000E+00

     total cpu time spent up to now is       22.3 secs

     total energy              =   -2338.74392954 Ry
     estimated scf accuracy    <       0.31503923 Ry

     iteration #  4     ecut=    60.00 Ry     beta= 0.40
     Davidson diagonalization with overlap

---- Real-time Memory Report at c_bands before calling an iterative solver
           739 MiB given to the printing process from OS
             0 MiB allocation reported by mallinfo(arena+hblkhd)
        368235 MiB available memory on the node where the printing process lives
------------------
     c_bands:  2 eigenvalues not converged
     ethr =  7.72E-05,  avg # of iterations = 20.0

     negative rho (up, down):  4.861E-02 0.000E+00

     total cpu time spent up to now is       27.9 secs

     total energy              =   -2338.79469039 Ry
     estimated scf accuracy    <       0.11313209 Ry

     iteration #  5     ecut=    60.00 Ry     beta= 0.40
     Davidson diagonalization with overlap

---- Real-time Memory Report at c_bands before calling an iterative solver
           739 MiB given to the printing process from OS
             0 MiB allocation reported by mallinfo(arena+hblkhd)
        368169 MiB available memory on the node where the printing process lives
------------------
     c_bands:  1 eigenvalues not converged
     ethr =  2.77E-05,  avg # of iterations = 20.0

     negative rho (up, down):  4.864E-02 0.000E+00

     total cpu time spent up to now is       32.4 secs

     total energy              =   -2338.79377636 Ry
     estimated scf accuracy    <       0.01720341 Ry

     iteration #  6     ecut=    60.00 Ry     beta= 0.40
     Davidson diagonalization with overlap

---- Real-time Memory Report at c_bands before calling an iterative solver
           752 MiB given to the printing process from OS
             0 MiB allocation reported by mallinfo(arena+hblkhd)
        368109 MiB available memory on the node where the printing process lives
------------------
     ethr =  4.22E-06,  avg # of iterations = 16.0

     negative rho (up, down):  4.864E-02 0.000E+00

     total cpu time spent up to now is       37.9 secs

     total energy              =   -2338.79821414 Ry
     estimated scf accuracy    <       0.00019550 Ry

     iteration #  7     ecut=    60.00 Ry     beta= 0.40
     Davidson diagonalization with overlap

---- Real-time Memory Report at c_bands before calling an iterative solver
           752 MiB given to the printing process from OS
             0 MiB allocation reported by mallinfo(arena+hblkhd)
        367751 MiB available memory on the node where the printing process lives
------------------
     ethr =  4.79E-08,  avg # of iterations =  5.0

     negative rho (up, down):  4.863E-02 0.000E+00

     total cpu time spent up to now is       42.8 secs

     total energy              =   -2338.79835989 Ry
     estimated scf accuracy    <       0.00005128 Ry

     iteration #  8     ecut=    60.00 Ry     beta= 0.40
     Davidson diagonalization with overlap

---- Real-time Memory Report at c_bands before calling an iterative solver
           759 MiB given to the printing process from OS
             0 MiB allocation reported by mallinfo(arena+hblkhd)
        367571 MiB available memory on the node where the printing process lives
------------------
     ethr =  1.26E-08,  avg # of iterations =  2.0

     negative rho (up, down):  4.862E-02 0.000E+00

     total cpu time spent up to now is       46.8 secs

     total energy              =   -2338.79836663 Ry
     estimated scf accuracy    <       0.00000831 Ry

     iteration #  9     ecut=    60.00 Ry     beta= 0.40
     Davidson diagonalization with overlap

---- Real-time Memory Report at c_bands before calling an iterative solver
           767 MiB given to the printing process from OS
             0 MiB allocation reported by mallinfo(arena+hblkhd)
        367449 MiB available memory on the node where the printing process lives
------------------
     ethr =  2.04E-09,  avg # of iterations =  3.0

     negative rho (up, down):  4.862E-02 0.000E+00

     total cpu time spent up to now is       51.0 secs

     total energy              =   -2338.79836851 Ry
     estimated scf accuracy    <       0.00000141 Ry

     iteration # 10     ecut=    60.00 Ry     beta= 0.40
     Davidson diagonalization with overlap

---- Real-time Memory Report at c_bands before calling an iterative solver
           770 MiB given to the printing process from OS
             0 MiB allocation reported by mallinfo(arena+hblkhd)
        365818 MiB available memory on the node where the printing process lives
------------------
     ethr =  3.47E-10,  avg # of iterations =  2.0

     negative rho (up, down):  4.862E-02 0.000E+00

     total cpu time spent up to now is       55.2 secs

     total energy              =   -2338.79836881 Ry
     estimated scf accuracy    <       0.00000010 Ry

     iteration # 11     ecut=    60.00 Ry     beta= 0.40
     Davidson diagonalization with overlap

---- Real-time Memory Report at c_bands before calling an iterative solver
           770 MiB given to the printing process from OS
             0 MiB allocation reported by mallinfo(arena+hblkhd)
        365805 MiB available memory on the node where the printing process lives
------------------
     ethr =  2.54E-11,  avg # of iterations =  5.0

     negative rho (up, down):  4.862E-02 0.000E+00

     total cpu time spent up to now is       59.7 secs

     total energy              =   -2338.79836885 Ry
     estimated scf accuracy    <       0.00000002 Ry

     iteration # 12     ecut=    60.00 Ry     beta= 0.40
     Davidson diagonalization with overlap

---- Real-time Memory Report at c_bands before calling an iterative solver
           772 MiB given to the printing process from OS
             0 MiB allocation reported by mallinfo(arena+hblkhd)
        365660 MiB available memory on the node where the printing process lives
------------------
     ethr =  4.84E-12,  avg # of iterations =  3.0

     negative rho (up, down):  4.863E-02 0.000E+00

     total cpu time spent up to now is       63.8 secs

     End of self-consistent calculation

          k = 0.0000 0.0000 0.0000 ( 95217 PWs)   bands (ev):

   -23.9905 -23.7888 -23.6391 -23.6140 -23.5693 -23.5289 -23.4889 -23.4469
   -23.3921 -23.3455 -23.1508 -23.1291 -23.1075 -23.0746 -22.9858 -22.9245
   -22.7161 -22.6216 -22.5960 -22.5762 -22.4645 -22.4481 -22.4068 -22.3469
   -22.2883 -22.2811 -22.1208 -22.0842 -22.0243 -22.0019 -21.9949 -21.9897
   -21.9803 -21.9676 -21.9539 -21.9443 -21.9361 -21.9318 -21.9251 -21.9186
   -21.9058 -21.8976 -21.8862 -21.8171 -21.8042 -21.7512 -21.7437 -21.6677
   -18.9851 -18.2172 -18.0802 -13.8540 -13.2109 -13.1495 -13.1365 -13.1170
   -13.0586 -12.4107 -12.3968 -12.3428 -12.2081 -12.1523 -12.1237 -12.0152
   -11.9349 -11.4398 -11.3329 -11.2601 -11.2413 -11.1611 -11.1083 -11.0166
   -10.9187 -10.8189 -10.7709 -10.5449 -10.4901 -10.4130 -10.3298 -10.3191
   -10.3032 -10.2466 -10.1484 -10.0931 -10.0499 -10.0396  -9.9878  -9.9736
    -9.9187  -9.8662  -9.8509  -9.8375  -9.7708  -9.7178  -9.6960  -9.6324
    -9.5769  -9.5608  -9.4640  -9.3708  -8.3961  -8.3114  -8.2000  -8.0434
    -7.9587  -7.9070  -7.8788  -7.7855  -7.7736  -7.7542  -7.7308  -7.6825
    -7.6258  -7.6033  -7.5872  -7.5580  -7.5509  -7.5339  -7.4873  -7.4378
    -7.4208  -7.3631  -7.3228  -7.2778  -7.2274  -7.1786  -7.1157  -7.0993
    -7.0284  -6.9813  -6.9381  -6.9187  -6.8990  -6.8371  -6.7790  -6.7480
    -6.7046  -6.6757  -6.6488  -6.6340  -6.6023  -6.5770  -6.5523  -6.5331
    -6.4545  -6.4506  -6.4345  -6.3681  -6.3409  -6.3194  -6.2923  -6.2854
    -6.2672  -6.2155  -6.1924  -6.1560  -6.1420  -6.1038  -6.0963  -6.0512
    -6.0273  -6.0011  -5.9634  -5.9298  -5.9241  -5.9127  -5.8634  -5.8486
    -5.7908  -5.7694  -5.7195  -5.6838  -5.6601  -5.6246  -5.5753  -5.5303
    -5.5149  -5.4754  -5.4473  -5.4239  -5.3733  -5.3523  -5.3264  -5.2802
    -5.2303  -5.1902  -5.1780  -5.1661  -5.1452  -5.1357  -5.0927  -5.0911
    -5.0642  -5.0324  -4.9996  -4.9647  -4.9587  -4.9095  -4.8794  -4.8314
    -4.8218  -4.7902  -4.7352  -4.6456   0.6843   1.0587   1.5482   2.0157
     2.0422   2.2446   2.3979   2.4651   2.5702   2.6944   2.7437   2.7783
     2.8601   2.9049   3.0621   3.0963   3.1580   3.2560   3.3050   3.3550
     3.4458   3.5680   3.6246   3.6333   3.6899   3.6914   3.8114   3.8619
     3.8960   3.9029   3.9212   3.9440   3.9822   4.0201   4.0664   4.1120
     4.1305   4.1435   4.1651   4.1851   4.2566

     occupation numbers 
     1.0000   1.0000   1.0000   1.0000   1.0000   1.0000   1.0000   1.0000
     1.0000   1.0000   1.0000   1.0000   1.0000   1.0000   1.0000   1.0000
     1.0000   1.0000   1.0000   1.0000   1.0000   1.0000   1.0000   1.0000
     1.0000   1.0000   1.0000   1.0000   1.0000   1.0000   1.0000   1.0000
     1.0000   1.0000   1.0000   1.0000   1.0000   1.0000   1.0000   1.0000
     1.0000   1.0000   1.0000   1.0000   1.0000   1.0000   1.0000   1.0000
     1.0000   1.0000   1.0000   1.0000   1.0000   1.0000   1.0000   1.0000
     1.0000   1.0000   1.0000   1.0000   1.0000   1.0000   1.0000   1.0000
     1.0000   1.0000   1.0000   1.0000   1.0000   1.0000   1.0000   1.0000
     1.0000   1.0000   1.0000   1.0000   1.0000   1.0000   1.0000   1.0000
     1.0000   1.0000   1.0000   1.0000   1.0000   1.0000   1.0000   1.0000
     1.0000   1.0000   1.0000   1.0000   1.0000   1.0000   1.0000   1.0000
     1.0000   1.0000   1.0000   1.0000   1.0000   1.0000   1.0000   1.0000
     1.0000   1.0000   1.0000   1.0000   1.0000   1.0000   1.0000   1.0000
     1.0000   1.0000   1.0000   1.0000   1.0000   1.0000   1.0000   1.0000
     1.0000   1.0000   1.0000   1.0000   1.0000   1.0000   1.0000   1.0000
     1.0000   1.0000   1.0000   1.0000   1.0000   1.0000   1.0000   1.0000
     1.0000   1.0000   1.0000   1.0000   1.0000   1.0000   1.0000   1.0000
     1.0000   1.0000   1.0000   1.0000   1.0000   1.0000   1.0000   1.0000
     1.0000   1.0000   1.0000   1.0000   1.0000   1.0000   1.0000   1.0000
     1.0000   1.0000   1.0000   1.0000   1.0000   1.0000   1.0000   1.0000
     1.0000   1.0000   1.0000   1.0000   1.0000   1.0000   1.0000   1.0000
     1.0000   1.0000   1.0000   1.0000   1.0000   1.0000   1.0000   1.0000
     1.0000   1.0000   1.0000   1.0000   1.0000   1.0000   1.0000   1.0000
     1.0000   1.0000   1.0000   1.0000   1.0000   1.0000   1.0000   1.0000
     1.0000   1.0000   1.0000   1.0000   0.0000   0.0000   0.0000   0.0000
     0.0000   0.0000   0.0000   0.0000   0.0000   0.0000   0.0000   0.0000
     0.0000   0.0000   0.0000   0.0000   0.0000   0.0000   0.0000   0.0000
     0.0000   0.0000   0.0000   0.0000   0.0000   0.0000   0.0000   0.0000
     0.0000   0.0000   0.0000   0.0000   0.0000   0.0000   0.0000   0.0000
     0.0000   0.0000   0.0000   0.0000   0.0000

     the Fermi energy is    -1.8051 ev

!    total energy              =   -2338.79836886 Ry
     estimated scf accuracy    <          2.0E-09 Ry
     smearing contrib. (-TS)   =      -0.00000000 Ry
     internal energy E=F+TS    =   -2338.79836886 Ry

     The total energy is F=E-TS. E is the sum of the following terms:
     one-electron contribution =  -45808.98797098 Ry
     hartree contribution      =   23015.17523382 Ry
     xc contribution           =    -525.87233634 Ry
     ewald contribution        =   21417.73324708 Ry
     Dispersion Correction     =      -0.48420182 Ry
     one-center paw contrib.   =    -436.36234062 Ry
      -> PAW hartree energy AE =       0.00000000 Ry
      -> PAW hartree energy PS =       0.00000000 Ry
      -> PAW xc energy AE      =       0.00000000 Ry
      -> PAW xc energy PS      =       0.00000000 Ry
      -> total E_H with PAW    =   23015.17523382 Ry
      -> total E_XC with PAW   =    -525.87233634 Ry

     convergence has been achieved in  12 iterations

     negative rho (up, down):  4.863E-02 0.000E+00

     Forces acting on atoms (cartesian axes, Ry/au):

     atom    1 type  1   force =    -0.00147653   -0.00032722   -0.00153195
     atom    2 type  1   force =    -0.00087949    0.00081674    0.00085968
     atom    3 type  1   force =    -0.00342666   -0.00202322    0.00198725
     atom    4 type  1   force =    -0.00147214    0.00000951   -0.00004841
     atom    5 type  1   force =     0.00101049   -0.00041792    0.00094569
     atom    6 type  1   force =    -0.00006454    0.00033609    0.00140189
     atom    7 type  1   force =     0.00009543   -0.00017549    0.00029680
     atom    8 type  1   force =     0.00081521   -0.00104915   -0.00040788
     atom    9 type  2   force =     0.00300191   -0.03195302   -0.02040718
     atom   10 type  2   force =    -0.00188543   -0.03978134   -0.02124994
     atom   11 type  2   force =     0.00410803   -0.02811317   -0.02042936
     atom   12 type  2   force =     0.00699169   -0.02542137   -0.02203357
     atom   13 type  2   force =     0.02898703   -0.00263632    0.00116005
     atom   14 type  2   force =     0.02994977   -0.02181309    0.00107121
     atom   15 type  2   force =     0.02404318   -0.01462946    0.00467506
     atom   16 type  2   force =     0.01953249   -0.00343167   -0.00028881
     atom   17 type  3   force =    -0.03104618    0.05054632    0.01437462
     atom   18 type  3   force =    -0.02353219    0.03610982    0.01968090
     atom   19 type  3   force =    -0.03279824    0.05006803    0.01444957
     atom   20 type  3   force =    -0.01523562    0.03667119    0.03026560
     atom   21 type  2   force =    -0.00085556    0.00059225   -0.00024363
     atom   22 type  2   force =     0.00009209    0.00003785    0.00024233
     atom   23 type  2   force =    -0.00005391    0.00031965    0.00060157
     atom   24 type  2   force =    -0.00119012   -0.00121553    0.00069189
     atom   25 type  2   force =    -0.00038475   -0.00018452   -0.00065013
     atom   26 type  2   force =    -0.00011574   -0.00028063   -0.00030229
     atom   27 type  2   force =     0.00042379    0.00077412    0.00025277
     atom   28 type  2   force =     0.00082084   -0.00126117    0.00027903
     atom   29 type  3   force =    -0.00026829   -0.00063864   -0.00049119
     atom   30 type  3   force =    -0.00025101   -0.00021715   -0.00058760
     atom   31 type  3   force =     0.00023251   -0.00114249   -0.00136414
     atom   32 type  3   force =     0.00043621    0.00009747   -0.00006054
     atom   33 type  2   force =    -0.00106463    0.00161062    0.00042931
     atom   34 type  2   force =    -0.00159517   -0.00037551   -0.00051849
     atom   35 type  2   force =     0.00193745   -0.00040765    0.00026203
     atom   36 type  2   force =    -0.00122262    0.00159212   -0.00086234
     atom   37 type  2   force =    -0.00046947    0.00004771   -0.00144363
     atom   38 type  2   force =    -0.00082591   -0.00034728   -0.00071560
     atom   39 type  2   force =    -0.00004287   -0.00058178   -0.00055829
     atom   40 type  2   force =     0.00030922   -0.00030456   -0.00084238
     atom   41 type  3   force =    -0.00067133   -0.00062865    0.00023145
     atom   42 type  3   force =     0.00038300   -0.00182231   -0.00086107
     atom   43 type  3   force =     0.00024683   -0.00109225    0.00062470
     atom   44 type  3   force =    -0.00024721    0.00045711    0.00017528
     atom   45 type  2   force =     0.00051697    0.00004932   -0.00147884
     atom   46 type  2   force =    -0.00077516    0.00017791    0.00072474
     atom   47 type  2   force =     0.00064061   -0.00243810    0.00003203
     atom   48 type  2   force =     0.00108019   -0.00061143    0.00096223
     atom   49 type  2   force =     0.00062824   -0.00031600    0.00175865
     atom   50 type  2   force =    -0.00098389    0.00123364    0.00018916
     atom   51 type  2   force =    -0.00076033    0.00140838   -0.00026618
     atom   52 type  2   force =     0.00052368    0.00083873   -0.00020224
     atom   53 type  3   force =     0.00126053   -0.00039128    0.00004866
     atom   54 type  3   force =    -0.00075618    0.00043134   -0.00079879
     atom   55 type  3   force =     0.00070551   -0.00070272    0.00044111
     atom   56 type  3   force =    -0.00125689    0.00005218   -0.00150762
     atom   57 type  2   force =    -0.00008207    0.00003103   -0.00033333
     atom   58 type  2   force =    -0.00049836   -0.00018978    0.00259886
     atom   59 type  2   force =     0.00058527   -0.00062187    0.00087741
     atom   60 type  2   force =    -0.00115484    0.00100669    0.00066616
     atom   61 type  2   force =    -0.00002115   -0.00007420    0.00145541
     atom   62 type  2   force =    -0.00154509    0.00053950   -0.00113553
     atom   63 type  2   force =     0.00077790    0.00117006   -0.00179934
     atom   64 type  2   force =     0.00155203   -0.00099886    0.00168620
     atom   65 type  3   force =     0.00003372    0.00051845   -0.00082801
     atom   66 type  3   force =     0.00133346   -0.00018548    0.00101315
     atom   67 type  3   force =    -0.00142082   -0.00006734    0.00011663
     atom   68 type  3   force =     0.00085127   -0.00001635   -0.00174165
     atom   69 type  2   force =    -0.00008816    0.00098953    0.00000162
     atom   70 type  2   force =     0.00044024    0.00136808   -0.00159968
     atom   71 type  2   force =    -0.00097414   -0.00059880   -0.00071763
     atom   72 type  2   force =    -0.00027077    0.00037794    0.00095764
     atom   73 type  1   force =    -0.00033740   -0.00026857   -0.00020066
     atom   74 type  1   force =    -0.00043923    0.00099224   -0.00006846
     atom   75 type  1   force =     0.00061430    0.00089057   -0.00000109
     atom   76 type  2   force =     0.00000693   -0.00049069   -0.00094878
     atom   77 type  2   force =    -0.00042483   -0.00030275   -0.00023648
     atom   78 type  2   force =    -0.00085095   -0.00172980    0.00085450
     atom   79 type  2   force =    -0.00025843    0.00004616    0.00070606
     atom   80 type  1   force =    -0.00094522    0.00024168   -0.00028108
     atom   81 type  1   force =    -0.00031538    0.00097398   -0.00010644
     atom   82 type  1   force =     0.00030414    0.00130020    0.00044112
     atom   83 type  1   force =    -0.00004698    0.00060335   -0.00034301
     atom   84 type  3   force =     0.00003418   -0.00102013   -0.00010704
     atom   85 type  4   force =    -0.00038092   -0.00080463   -0.00062716
     atom   86 type  4   force =     0.00035888   -0.00010132    0.00068916
     atom   87 type  4   force =    -0.00000242   -0.00112487    0.00004830
     The non-local contrib.  to forces
     atom    1 type  1   force =     0.08905270    0.05187296    0.01268007
     atom    2 type  1   force =    -0.00681573   -0.03103076    0.10190224
     atom    3 type  1   force =     0.07159393   -0.00053549    0.07956092
     atom    4 type  1   force =    -0.06372243   -0.01782587    0.08237359
     atom    5 type  1   force =     0.09108434   -0.03864426    0.00198637
     atom    6 type  1   force =     0.08670478   -0.04209664    0.02056296
     atom    7 type  1   force =     0.08570844   -0.04266352    0.01712011
     atom    8 type  1   force =     0.07888895   -0.05378369    0.00863911
     atom    9 type  2   force =     0.22465015    1.46814147   -0.73897977
     atom   10 type  2   force =    -1.57718468   -0.03236015    0.89863085
     atom   11 type  2   force =     1.22743944    1.30018884   -0.35841410
     atom   12 type  2   force =    -1.34006158    0.89967747   -0.32322252
     atom   13 type  2   force =    -1.03372180   -0.67914234    0.27199089
     atom   14 type  2   force =    -1.01682959   -0.52232822    0.52306828
     atom   15 type  2   force =    -1.12994493   -0.78876893    0.24737296
     atom   16 type  2   force =    -1.13597731   -0.76728634    0.59090872
     atom   17 type  3   force =     0.03663947   -0.00387890    0.05406216
     atom   18 type  3   force =     0.02977117    0.01269848    0.04871950
     atom   19 type  3   force =     0.04309652    0.01532551    0.03761230
     atom   20 type  3   force =     0.06141182    0.02540170    0.04211422
     atom   21 type  2   force =    -0.48513221   -0.61723505    0.54849499
     atom   22 type  2   force =    -0.42841204   -0.76672773    0.49983367
     atom   23 type  2   force =    -0.42393466   -0.74261057    0.47392078
     atom   24 type  2   force =    -0.48636434   -0.66086422    0.50880177
     atom   25 type  2   force =    -0.47090415    0.79503106   -0.49686658
     atom   26 type  2   force =    -0.45192362    0.82339353   -0.48212080
     atom   27 type  2   force =    -0.45036457    0.79377173   -0.46301709
     atom   28 type  2   force =    -0.48729903    0.73048427   -0.50606249
     atom   29 type  3   force =     0.01067409   -0.02016236   -0.01169132
     atom   30 type  3   force =    -0.00347101   -0.00691851   -0.02059581
     atom   31 type  3   force =     0.00364325   -0.01338376   -0.00507122
     atom   32 type  3   force =    -0.01238084   -0.00146287   -0.00749496
     atom   33 type  2   force =    -0.34221935    0.70870515    0.48324701
     atom   34 type  2   force =    -0.30923057    0.67129739    0.55566916
     atom   35 type  2   force =    -0.27737283    0.68259844    0.57242771
     atom   36 type  2   force =    -0.30984231    0.69781815    0.50015757
     atom   37 type  2   force =     0.86797182    0.01126969   -0.49120539
     atom   38 type  2   force =     0.84188908    0.03650750   -0.51507489
     atom   39 type  2   force =     0.80917602    0.04338686   -0.57020444
     atom   40 type  2   force =     0.88056147   -0.00344152   -0.50544921
     atom   41 type  3   force =    -0.01202961    0.00893456    0.00731982
     atom   42 type  3   force =    -0.00505053    0.00015012    0.00169400
     atom   43 type  3   force =    -0.00235843   -0.00602224    0.00856419
     atom   44 type  3   force =    -0.00894256    0.00033138    0.01599316
     atom   45 type  2   force =     0.91952944    0.14150366    0.32621369
     atom   46 type  2   force =     1.00097160    0.09382255    0.40777084
     atom   47 type  2   force =     0.98869288    0.16572662    0.36967890
     atom   48 type  2   force =     0.85662792    0.14743589    0.24172766
     atom   49 type  2   force =    -0.48866479   -0.71991536   -0.38617037
     atom   50 type  2   force =    -0.50385970   -0.72847068   -0.34754702
     atom   51 type  2   force =    -0.55271268   -0.67815692   -0.23045105
     atom   52 type  2   force =    -0.52684748   -0.67206822   -0.26653512
     atom   53 type  3   force =     0.00507543    0.01854728   -0.00867493
     atom   54 type  3   force =     0.00955760    0.01505721   -0.00426487
     atom   55 type  3   force =     0.01876584    0.00659179   -0.01839613
     atom   56 type  3   force =     0.01120235    0.01238257   -0.00020171
     atom   57 type  2   force =    -0.58564687   -0.37423727    0.67329499
     atom   58 type  2   force =    -0.56066395   -0.30840706    0.83326667
     atom   59 type  2   force =    -0.44212774   -0.63023422    0.50466992
     atom   60 type  2   force =    -0.42601754   -0.41743803    0.49320111
     atom   61 type  2   force =    -0.49219865    0.65194796   -0.72832085
     atom   62 type  2   force =    -0.48907398    0.17004049   -0.74646263
     atom   63 type  2   force =    -0.46116743    0.67530030   -0.59369233
     atom   64 type  2   force =    -0.52483779    0.46857253   -0.62964833
     atom   65 type  3   force =     0.01849050   -0.05167855    0.00984353
     atom   66 type  3   force =     0.04479748   -0.02498099   -0.03545707
     atom   67 type  3   force =     0.02497057    0.05077086   -0.03521265
     atom   68 type  3   force =     0.01301584    0.01816762   -0.01359315
     atom   69 type  2   force =     0.55005312    0.77299207    0.69530564
     atom   70 type  2   force =    -1.18173678    0.49987729   -0.57040621
     atom   71 type  2   force =    -1.24317691    0.53468104   -0.04998180
     atom   72 type  2   force =    -1.05304458    0.57750337   -0.86710280
     atom   73 type  1   force =     0.07566115    0.04728087   -0.01059979
     atom   74 type  1   force =     0.07904922    0.04142880    0.00157849
     atom   75 type  1   force =     0.07860913    0.04544327   -0.02345680
     atom   76 type  2   force =    -0.95977580    0.09604156   -1.42772505
     atom   77 type  2   force =    -1.19087253   -0.47001395   -0.74677436
     atom   78 type  2   force =    -1.35966821   -0.65293321    0.32199350
     atom   79 type  2   force =    -1.44872507   -0.11988037   -0.81219686
     atom   80 type  1   force =     0.07234097   -0.06662499    0.01242221
     atom   81 type  1   force =     0.07249642   -0.01767326   -0.06996822
     atom   82 type  1   force =     0.08092982   -0.04134711   -0.00042141
     atom   83 type  1   force =     0.08626297   -0.05698432   -0.00518950
     atom   84 type  3   force =    -0.00367315   -0.04647056    0.06254986
     atom   85 type  4   force =    -0.15954333   -0.12577097   -0.10417491
     atom   86 type  4   force =     0.21132606   -0.04275017   -0.09443029
     atom   87 type  4   force =    -0.02969350    0.22913658   -0.03030610
     The ionic contribution  to forces
     atom    1 type  1   force =    -2.96111707   -1.81988843  -10.65370328
     atom    2 type  1   force =     0.19857622    0.87419743  -14.05794330
     atom    3 type  1   force =    -2.43832206   -0.17203355  -13.16918301
     atom    4 type  1   force =     2.10224531    0.55706675  -13.40617611
     atom    5 type  1   force =    -2.70459048    0.74571842   -9.07131121
     atom    6 type  1   force =    -2.56242894    0.78539735  -10.00883843
     atom    7 type  1   force =    -2.55883311    0.79786328   -9.84718002
     atom    8 type  1   force =    -2.17242330    1.17173907   -9.36621167
     atom    9 type  2   force =    -1.19055402   -4.65567586  -60.21276390
     atom   10 type  2   force =     2.20162526   -1.82150960  -63.22801294
     atom   11 type  2   force =    -2.80166224   -4.28849347  -60.96492371
     atom   12 type  2   force =     1.44570078   -3.66084947  -60.84700163
     atom   13 type  2   force =     1.27802246    3.28752224  -56.16189032
     atom   14 type  2   force =     1.76394855    3.09484829  -56.41078590
     atom   15 type  2   force =     1.47309154    3.50461398  -56.07280214
     atom   16 type  2   force =     2.04058885    3.49335488  -56.53813648
     atom   17 type  3   force =    -0.19503052    0.34417042  -31.76186537
     atom   18 type  3   force =    -0.10050819    0.35297283  -31.73848820
     atom   19 type  3   force =    -0.05132452    0.44787233  -31.68589769
     atom   20 type  3   force =     0.19909980    0.63235672  -31.64846341
     atom   21 type  2   force =     1.77899512    3.04522390  -43.35221041
     atom   22 type  2   force =     1.73450834    3.45839189  -42.90142811
     atom   23 type  2   force =     1.91890189    3.24454823  -42.69587391
     atom   24 type  2   force =     1.93798015    3.21674477  -43.08197226
     atom   25 type  2   force =     1.22225691   -3.40202412  -32.34952563
     atom   26 type  2   force =     1.25557061   -3.41484777  -32.64867440
     atom   27 type  2   force =     1.64088629   -3.20183103  -32.14725405
     atom   28 type  2   force =     1.69688915   -3.30996791  -31.72487603
     atom   29 type  3   force =    -0.04684034   -0.16078548  -17.88851682
     atom   30 type  3   force =    -0.02385458   -0.02611144  -17.86857316
     atom   31 type  3   force =     0.15300960   -0.03289532  -17.62962656
     atom   32 type  3   force =     0.18218271   -0.06864766  -17.68676964
     atom   33 type  2   force =     1.53309583   -2.46617479  -19.94066743
     atom   34 type  2   force =     1.85908633   -2.77334159  -20.99563341
     atom   35 type  2   force =     1.61622377   -2.51140975  -21.24203149
     atom   36 type  2   force =     1.63278552   -2.50898549  -20.01459124
     atom   37 type  2   force =    -3.58488201    0.48837291  -10.15992230
     atom   38 type  2   force =    -3.65710159    0.13638618  -10.25483098
     atom   39 type  2   force =    -3.11334127    0.03410165   -9.56437451
     atom   40 type  2   force =    -3.22485986    0.48626398  -10.00982362
     atom   41 type  3   force =    -0.14941136    0.21810058   -2.29295557
     atom   42 type  3   force =    -0.23628910   -0.00395394   -2.96992930
     atom   43 type  3   force =     0.01839357   -0.19998837   -2.60601185
     atom   44 type  3   force =     0.07901669    0.19317720   -2.16051186
     atom   45 type  2   force =    -3.53759450   -0.70375004    4.63066677
     atom   46 type  2   force =    -4.20298965   -0.74443855    2.96003108
     atom   47 type  2   force =    -4.28654829   -1.25647640    3.27137075
     atom   48 type  2   force =    -3.39115233   -0.48652116    5.17215761
     atom   49 type  2   force =     2.34166295    3.00858443   11.74288957
     atom   50 type  2   force =     1.83882659    2.89296749   10.00878184
     atom   51 type  2   force =     2.50923563    2.63326494   10.15705243
     atom   52 type  2   force =     3.09573766    2.71146755   10.98706313
     atom   53 type  3   force =    -0.05846046    0.17280711   12.24481914
     atom   54 type  3   force =    -0.43227809   -0.11515562   11.41291408
     atom   55 type  3   force =     0.15831489    0.28035955   12.42215320
     atom   56 type  3   force =     0.45418618    0.01681622   12.86719225
     atom   57 type  2   force =     1.55054768    1.85857954   22.55563645
     atom   58 type  2   force =     1.83190520    0.92384559   20.12430337
     atom   59 type  2   force =     1.73613893    2.73114779   24.88909461
     atom   60 type  2   force =     1.12682890    1.85055045   25.62631329
     atom   61 type  2   force =     3.17218571   -2.94625061   37.06580084
     atom   62 type  2   force =     1.68750476   -0.00956953   36.55685873
     atom   63 type  2   force =     1.94346575   -3.22306265   36.42867177
     atom   64 type  2   force =     1.05099894   -2.32245217   35.48250552
     atom   65 type  3   force =     0.57020232   -0.06162609   25.68186382
     atom   66 type  3   force =    -0.98745190    0.04641997   27.00883492
     atom   67 type  3   force =     0.14270868   -0.29336317   27.45282962
     atom   68 type  3   force =    -1.12312337   -0.02065813   27.77075491
     atom   69 type  2   force =    -1.78596152   -3.44902257   45.22619293
     atom   70 type  2   force =     0.84086111   -2.54145663   52.00938489
     atom   71 type  2   force =     0.18207169   -2.72729229   48.90659220
     atom   72 type  2   force =     3.25337898   -3.69684718   53.48721624
     atom   73 type  1   force =    -2.04366959   -1.06681705    8.87280227
     atom   74 type  1   force =    -1.79164292   -1.00844775    8.39647179
     atom   75 type  1   force =    -2.36592349   -1.04218185    9.26815196
     atom   76 type  2   force =    -0.96116053    0.30281544   55.96669272
     atom   77 type  2   force =     2.39081808    3.53838775   51.09375510
     atom   78 type  2   force =     3.32430326    2.96125594   52.68666440
     atom   79 type  2   force =     0.59700466    3.08184056   55.76741337
     atom   80 type  1   force =    -2.33398725    1.81065801    8.15314442
     atom   81 type  1   force =    -1.75380804    0.66954645   11.60747785
     atom   82 type  1   force =    -2.24162960    1.28808366    8.39130634
     atom   83 type  1   force =    -2.75890272    1.93906077    9.17530617
     atom   84 type  3   force =     0.02976282   -0.55191316   40.45228698
     atom   85 type  4   force =     5.84498691    3.69436085   73.13671042
     atom   86 type  4   force =    -6.32943916    1.82408446   73.24520574
     atom   87 type  4   force =     1.52277844   -6.08119222   70.67482778
     The local contribution  to forces
     atom    1 type  1   force =     2.87086746    1.76828538   10.63824099
     atom    2 type  1   force =    -0.19290656   -0.84207779   13.95610567
     atom    3 type  1   force =     2.36320144    0.17076262   13.09085775
     atom    4 type  1   force =    -2.04034931   -0.53899964   13.32294014
     atom    5 type  1   force =     2.61508649   -0.70760975    9.06907737
     atom    6 type  1   force =     2.47648602   -0.74363373    9.98888051
     atom    7 type  1   force =     2.47390609   -0.75613248    9.82967340
     atom    8 type  1   force =     2.09494030   -1.11926600    9.35628307
     atom    9 type  2   force =     0.97151996    3.16801878   60.92387744
     atom   10 type  2   force =    -0.63940440    1.81364150   62.31488641
     atom   11 type  2   force =     1.58964384    2.97127073   61.29880743
     atom   12 type  2   force =    -0.10979388    2.74327100   61.14439386
     atom   13 type  2   force =    -0.22435750   -2.61796370   55.89163203
     atom   14 type  2   force =    -0.72576690   -2.59973058   55.89172258
     atom   15 type  2   force =    -0.32882486   -2.73822862   55.83047638
     atom   16 type  2   force =    -0.89452614   -2.73729064   55.95043230
     atom   17 type  3   force =     0.13117465   -0.29013418   31.72719217
     atom   18 type  3   force =     0.05061015   -0.32776380   31.71390265
     atom   19 type  3   force =    -0.02021273   -0.41064571   31.66575325
     atom   20 type  3   force =    -0.26813229   -0.61741723   31.64024459
     atom   21 type  2   force =    -1.29956869   -2.43298434   42.80778453
     atom   22 type  2   force =    -1.31044688   -2.69865933   42.40577914
     atom   23 type  2   force =    -1.49930186   -2.50845034   42.22649069
     atom   24 type  2   force =    -1.45762348   -2.56301664   42.57785239
     atom   25 type  2   force =    -0.75662918    2.61380609   32.84005417
     atom   26 type  2   force =    -0.80857494    2.59845686   33.12500597
     atom   27 type  2   force =    -1.19473826    2.41600951   32.60575313
     atom   28 type  2   force =    -1.21360931    2.58466087   32.22571237
     atom   29 type  3   force =     0.03717698    0.17812192   17.89661775
     atom   30 type  3   force =     0.02628682    0.03285627   17.88394314
     atom   31 type  3   force =    -0.15603394    0.04405863   17.63162779
     atom   32 type  3   force =    -0.17131726    0.07096541   17.69166175
     atom   33 type  2   force =    -1.19468871    1.76599015   19.46274078
     atom   34 type  2   force =    -1.55374166    2.10815907   20.44495690
     atom   35 type  2   force =    -1.33893059    1.83504462   20.67555501
     atom   36 type  2   force =    -1.32659829    1.81954120   19.51864882
     atom   37 type  2   force =     2.72452817   -0.49896463   10.64447210
     atom   38 type  2   force =     2.82216793   -0.17247811   10.76389503
     atom   39 type  2   force =     2.31176060   -0.07715543   10.12824450
     atom   40 type  2   force =     2.35298049   -0.48257954   10.50907190
     atom   41 type  3   force =     0.15972381   -0.22579867    2.28698222
     atom   42 type  3   force =     0.24183594    0.00235224    2.96805052
     atom   43 type  3   force =    -0.01513514    0.20426565    2.60000971
     atom   44 type  3   force =    -0.07092540   -0.19263337    2.14703224
     atom   45 type  2   force =     2.62724630    0.56323462   -4.95495877
     atom   46 type  2   force =     3.21063197    0.65120609   -3.36273911
     atom   47 type  2   force =     3.30772256    1.08932287   -3.63710439
     atom   48 type  2   force =     2.54360239    0.33962920   -5.41051765
     atom   49 type  2   force =    -1.85656858   -2.29573985  -11.35876950
     atom   50 type  2   force =    -1.34035634   -2.17021892   -9.66463390
     atom   51 type  2   force =    -1.96210196   -1.96025304   -9.92899299
     atom   52 type  2   force =    -2.57292837   -2.04492322  -10.72337609
     atom   53 type  3   force =     0.05467252   -0.18921643  -12.23650703
     atom   54 type  3   force =     0.42220031    0.10189675  -11.40969022
     atom   55 type  3   force =    -0.17436846   -0.28730611  -12.40601363
     atom   56 type  3   force =    -0.46560743   -0.02794071  -12.86781095
     atom   57 type  2   force =    -0.97090741   -1.48760175  -23.22249170
     atom   58 type  2   force =    -1.27761967   -0.61882136  -20.94682481
     atom   59 type  2   force =    -1.29822313   -2.10704619  -25.38763342
     atom   60 type  2   force =    -0.70650788   -1.43578542  -26.11366624
     atom   61 type  2   force =    -2.68435069    2.30007606  -36.34250514
     atom   62 type  2   force =    -1.20501515   -0.15805510  -35.81832085
     atom   63 type  2   force =    -1.48610662    2.55530244  -35.84168957
     atom   64 type  2   force =    -0.52994959    1.85689127  -34.85659469
     atom   65 type  3   force =    -0.58606064    0.10732173  -25.68780500
     atom   66 type  3   force =     0.94711472   -0.02513717  -26.97489451
     atom   67 type  3   force =    -0.16843348    0.24982812  -27.42007261
     atom   68 type  3   force =     1.10885015    0.00554556  -27.75757069
     atom   69 type  2   force =     1.24143177    2.68411336  -45.91436899
     atom   70 type  2   force =     0.33105155    2.04748211  -51.44425109
     atom   71 type  2   force =     1.04981899    2.19762718  -48.85588105
     atom   72 type  2   force =    -2.20935468    3.12476428  -52.62541549
     atom   73 type  1   force =     1.96813938    1.02029792   -8.86179808
     atom   74 type  1   force =     1.71307982    0.96821499   -8.39738533
     atom   75 type  1   force =     2.28804080    0.99842946   -9.24382545
     atom   76 type  2   force =     1.91245382   -0.39940053  -54.55181265
     atom   77 type  2   force =    -1.20993094   -3.07276308  -50.35290847
     atom   78 type  2   force =    -1.97619130   -2.31601901  -53.00456429
     atom   79 type  2   force =     0.83924987   -2.96333898  -54.96070311
     atom   80 type  1   force =     2.26084460   -1.74461750   -8.16521465
     atom   81 type  1   force =     1.68057820   -0.65183752  -11.53690685
     atom   82 type  1   force =     2.16062032   -1.24538301   -8.38972547
     atom   83 type  1   force =     2.67260437   -1.88231897   -9.16926464
     atom   84 type  3   force =    -0.02654562    0.59004223  -40.49577595
     atom   85 type  4   force =    -5.68659998   -3.57032678  -73.03119742
     atom   86 type  4   force =     6.11945090   -1.78132115  -73.14727845
     atom   87 type  4   force =    -1.49235504    5.85327234  -70.64113998
     The core correction contribution to forces
     atom    1 type  1   force =     0.00000000    0.00000000    0.00000000
     atom    2 type  1   force =     0.00000000    0.00000000    0.00000000
     atom    3 type  1   force =     0.00000000    0.00000000    0.00000000
     atom    4 type  1   force =     0.00000000    0.00000000    0.00000000
     atom    5 type  1   force =     0.00000000    0.00000000    0.00000000
     atom    6 type  1   force =     0.00000000    0.00000000    0.00000000
     atom    7 type  1   force =     0.00000000    0.00000000    0.00000000
     atom    8 type  1   force =     0.00000000    0.00000000    0.00000000
     atom    9 type  2   force =    -0.00216678   -0.01171585    0.00737536
     atom   10 type  2   force =     0.01359049    0.00124286   -0.00677215
     atom   11 type  2   force =    -0.01084022   -0.01039749    0.00405047
     atom   12 type  2   force =     0.01169490   -0.00675786    0.00372413
     atom   13 type  2   force =     0.00923008    0.00525077   -0.00194929
     atom   14 type  2   force =     0.00917319    0.00398931   -0.00435095
     atom   15 type  2   force =     0.01020428    0.00637700   -0.00179904
     atom   16 type  2   force =     0.01005856    0.00601500   -0.00482319
     atom   17 type  3   force =    -0.00425653    0.00034736   -0.00766293
     atom   18 type  3   force =    -0.00374033   -0.00205536   -0.00695597
     atom   19 type  3   force =    -0.00489654   -0.00240370   -0.00541551
     atom   20 type  3   force =    -0.00777258   -0.00436791   -0.00593858
     atom   21 type  2   force =     0.00383768    0.00482838   -0.00427529
     atom   22 type  2   force =     0.00337141    0.00600864   -0.00388686
     atom   23 type  2   force =     0.00331088    0.00586324   -0.00370854
     atom   24 type  2   force =     0.00382847    0.00525402   -0.00398724
     atom   25 type  2   force =     0.00368543   -0.00624431    0.00398804
     atom   26 type  2   force =     0.00356582   -0.00646309    0.00383273
     atom   27 type  2   force =     0.00350132   -0.00629705    0.00362649
     atom   28 type  2   force =     0.00375392   -0.00575977    0.00401969
     atom   29 type  3   force =    -0.00182565    0.00300111    0.00214542
     atom   30 type  3   force =     0.00026130    0.00070432    0.00369550
     atom   31 type  3   force =    -0.00055972    0.00165009    0.00093640
     atom   32 type  3   force =     0.00182098   -0.00036273    0.00149126
     atom   33 type  2   force =     0.00269953   -0.00562603   -0.00379742
     atom   34 type  2   force =     0.00247076   -0.00528205   -0.00434779
     atom   35 type  2   force =     0.00214072   -0.00535510   -0.00449030
     atom   36 type  2   force =     0.00245527   -0.00554302   -0.00392878
     atom   37 type  2   force =    -0.00683827   -0.00010093    0.00392000
     atom   38 type  2   force =    -0.00660758   -0.00026935    0.00407018
     atom   39 type  2   force =    -0.00638903   -0.00032275    0.00447746
     atom   40 type  2   force =    -0.00696872    0.00002582    0.00399945
     atom   41 type  3   force =     0.00182583   -0.00156500   -0.00121292
     atom   42 type  3   force =     0.00075313   -0.00028803   -0.00053445
     atom   43 type  3   force =     0.00019652    0.00076562   -0.00172849
     atom   44 type  3   force =     0.00142979   -0.00005396   -0.00260404
     atom   45 type  2   force =    -0.00728189   -0.00110727   -0.00257274
     atom   46 type  2   force =    -0.00784395   -0.00075643   -0.00322225
     atom   47 type  2   force =    -0.00778557   -0.00127872   -0.00291821
     atom   48 type  2   force =    -0.00681318   -0.00117040   -0.00196922
     atom   49 type  2   force =     0.00383684    0.00564901    0.00300277
     atom   50 type  2   force =     0.00399906    0.00568578    0.00271175
     atom   51 type  2   force =     0.00437501    0.00533655    0.00177475
     atom   52 type  2   force =     0.00413229    0.00528449    0.00210886
     atom   53 type  3   force =    -0.00056073   -0.00291892    0.00151046
     atom   54 type  3   force =    -0.00106443   -0.00221589    0.00102375
     atom   55 type  3   force =    -0.00262109   -0.00051254    0.00327384
     atom   56 type  3   force =    -0.00121607   -0.00160455    0.00034621
     atom   57 type  2   force =     0.00458923    0.00290460   -0.00535884
     atom   58 type  2   force =     0.00445728    0.00239407   -0.00653046
     atom   59 type  2   force =     0.00351421    0.00501021   -0.00398058
     atom   60 type  2   force =     0.00338369    0.00328597   -0.00393200
     atom   61 type  2   force =     0.00379748   -0.00518871    0.00574600
     atom   62 type  2   force =     0.00397286   -0.00136291    0.00586207
     atom   63 type  2   force =     0.00361836   -0.00536441    0.00466792
     atom   64 type  2   force =     0.00412381   -0.00372243    0.00485311
     atom   65 type  3   force =    -0.00244753    0.00580955   -0.00269595
     atom   66 type  3   force =    -0.00385965    0.00323193    0.00358501
     atom   67 type  3   force =    -0.00088667   -0.00738936    0.00384552
     atom   68 type  3   force =     0.00083609   -0.00245523   -0.00012864
     atom   69 type  2   force =    -0.00433865   -0.00615723   -0.00535982
     atom   70 type  2   force =     0.01033235   -0.00366386    0.00438228
     atom   71 type  2   force =     0.01082864   -0.00385054   -0.00005049
     atom   72 type  2   force =     0.00929424   -0.00421019    0.00688213
     atom   73 type  1   force =     0.00000000    0.00000000    0.00000000
     atom   74 type  1   force =     0.00000000    0.00000000    0.00000000
     atom   75 type  1   force =     0.00000000    0.00000000    0.00000000
     atom   76 type  2   force =     0.00851132   -0.00148599    0.01179029
     atom   77 type  2   force =     0.01009427    0.00326417    0.00590997
     atom   78 type  2   force =     0.01164455    0.00490193   -0.00321222
     atom   79 type  2   force =     0.01260681    0.00043012    0.00647058
     atom   80 type  1   force =     0.00000000    0.00000000    0.00000000
     atom   81 type  1   force =     0.00000000    0.00000000    0.00000000
     atom   82 type  1   force =     0.00000000    0.00000000    0.00000000
     atom   83 type  1   force =     0.00000000    0.00000000    0.00000000
     atom   84 type  3   force =     0.00052748    0.00821860   -0.01681087
     atom   85 type  4   force =    -0.00045164   -0.00025936   -0.00033647
     atom   86 type  4   force =     0.00069837   -0.00014673   -0.00063142
     atom   87 type  4   force =    -0.00035352    0.00024482   -0.00005910
     The Hubbard contrib.    to forces
     atom    1 type  1   force =     0.00000000    0.00000000    0.00000000
     atom    2 type  1   force =     0.00000000    0.00000000    0.00000000
     atom    3 type  1   force =     0.00000000    0.00000000    0.00000000
     atom    4 type  1   force =     0.00000000    0.00000000    0.00000000
     atom    5 type  1   force =     0.00000000    0.00000000    0.00000000
     atom    6 type  1   force =     0.00000000    0.00000000    0.00000000
     atom    7 type  1   force =     0.00000000    0.00000000    0.00000000
     atom    8 type  1   force =     0.00000000    0.00000000    0.00000000
     atom    9 type  2   force =     0.00000000    0.00000000    0.00000000
     atom   10 type  2   force =     0.00000000    0.00000000    0.00000000
     atom   11 type  2   force =     0.00000000    0.00000000    0.00000000
     atom   12 type  2   force =     0.00000000    0.00000000    0.00000000
     atom   13 type  2   force =     0.00000000    0.00000000    0.00000000
     atom   14 type  2   force =     0.00000000    0.00000000    0.00000000
     atom   15 type  2   force =     0.00000000    0.00000000    0.00000000
     atom   16 type  2   force =     0.00000000    0.00000000    0.00000000
     atom   17 type  3   force =     0.00000000    0.00000000    0.00000000
     atom   18 type  3   force =     0.00000000    0.00000000    0.00000000
     atom   19 type  3   force =     0.00000000    0.00000000    0.00000000
     atom   20 type  3   force =     0.00000000    0.00000000    0.00000000
     atom   21 type  2   force =     0.00000000    0.00000000    0.00000000
     atom   22 type  2   force =     0.00000000    0.00000000    0.00000000
     atom   23 type  2   force =     0.00000000    0.00000000    0.00000000
     atom   24 type  2   force =     0.00000000    0.00000000    0.00000000
     atom   25 type  2   force =     0.00000000    0.00000000    0.00000000
     atom   26 type  2   force =     0.00000000    0.00000000    0.00000000
     atom   27 type  2   force =     0.00000000    0.00000000    0.00000000
     atom   28 type  2   force =     0.00000000    0.00000000    0.00000000
     atom   29 type  3   force =     0.00000000    0.00000000    0.00000000
     atom   30 type  3   force =     0.00000000    0.00000000    0.00000000
     atom   31 type  3   force =     0.00000000    0.00000000    0.00000000
     atom   32 type  3   force =     0.00000000    0.00000000    0.00000000
     atom   33 type  2   force =     0.00000000    0.00000000    0.00000000
     atom   34 type  2   force =     0.00000000    0.00000000    0.00000000
     atom   35 type  2   force =     0.00000000    0.00000000    0.00000000
     atom   36 type  2   force =     0.00000000    0.00000000    0.00000000
     atom   37 type  2   force =     0.00000000    0.00000000    0.00000000
     atom   38 type  2   force =     0.00000000    0.00000000    0.00000000
     atom   39 type  2   force =     0.00000000    0.00000000    0.00000000
     atom   40 type  2   force =     0.00000000    0.00000000    0.00000000
     atom   41 type  3   force =     0.00000000    0.00000000    0.00000000
     atom   42 type  3   force =     0.00000000    0.00000000    0.00000000
     atom   43 type  3   force =     0.00000000    0.00000000    0.00000000
     atom   44 type  3   force =     0.00000000    0.00000000    0.00000000
     atom   45 type  2   force =     0.00000000    0.00000000    0.00000000
     atom   46 type  2   force =     0.00000000    0.00000000    0.00000000
     atom   47 type  2   force =     0.00000000    0.00000000    0.00000000
     atom   48 type  2   force =     0.00000000    0.00000000    0.00000000
     atom   49 type  2   force =     0.00000000    0.00000000    0.00000000
     atom   50 type  2   force =     0.00000000    0.00000000    0.00000000
     atom   51 type  2   force =     0.00000000    0.00000000    0.00000000
     atom   52 type  2   force =     0.00000000    0.00000000    0.00000000
     atom   53 type  3   force =     0.00000000    0.00000000    0.00000000
     atom   54 type  3   force =     0.00000000    0.00000000    0.00000000
     atom   55 type  3   force =     0.00000000    0.00000000    0.00000000
     atom   56 type  3   force =     0.00000000    0.00000000    0.00000000
     atom   57 type  2   force =     0.00000000    0.00000000    0.00000000
     atom   58 type  2   force =     0.00000000    0.00000000    0.00000000
     atom   59 type  2   force =     0.00000000    0.00000000    0.00000000
     atom   60 type  2   force =     0.00000000    0.00000000    0.00000000
     atom   61 type  2   force =     0.00000000    0.00000000    0.00000000
     atom   62 type  2   force =     0.00000000    0.00000000    0.00000000
     atom   63 type  2   force =     0.00000000    0.00000000    0.00000000
     atom   64 type  2   force =     0.00000000    0.00000000    0.00000000
     atom   65 type  3   force =     0.00000000    0.00000000    0.00000000
     atom   66 type  3   force =     0.00000000    0.00000000    0.00000000
     atom   67 type  3   force =     0.00000000    0.00000000    0.00000000
     atom   68 type  3   force =     0.00000000    0.00000000    0.00000000
     atom   69 type  2   force =     0.00000000    0.00000000    0.00000000
     atom   70 type  2   force =     0.00000000    0.00000000    0.00000000
     atom   71 type  2   force =     0.00000000    0.00000000    0.00000000
     atom   72 type  2   force =     0.00000000    0.00000000    0.00000000
     atom   73 type  1   force =     0.00000000    0.00000000    0.00000000
     atom   74 type  1   force =     0.00000000    0.00000000    0.00000000
     atom   75 type  1   force =     0.00000000    0.00000000    0.00000000
     atom   76 type  2   force =     0.00000000    0.00000000    0.00000000
     atom   77 type  2   force =     0.00000000    0.00000000    0.00000000
     atom   78 type  2   force =     0.00000000    0.00000000    0.00000000
     atom   79 type  2   force =     0.00000000    0.00000000    0.00000000
     atom   80 type  1   force =     0.00000000    0.00000000    0.00000000
     atom   81 type  1   force =     0.00000000    0.00000000    0.00000000
     atom   82 type  1   force =     0.00000000    0.00000000    0.00000000
     atom   83 type  1   force =     0.00000000    0.00000000    0.00000000
     atom   84 type  3   force =     0.00000000    0.00000000    0.00000000
     atom   85 type  4   force =     0.00000000    0.00000000    0.00000000
     atom   86 type  4   force =     0.00000000    0.00000000    0.00000000
     atom   87 type  4   force =     0.00000000    0.00000000    0.00000000
     The SCF correction term to forces
     atom    1 type  1   force =     0.00000035   -0.00000001    0.00000023
     atom    2 type  1   force =     0.00000005   -0.00000043    0.00000037
     atom    3 type  1   force =    -0.00000004   -0.00000017    0.00000017
     atom    4 type  1   force =    -0.00000024   -0.00000009    0.00000007
     atom    5 type  1   force =     0.00000118   -0.00000054    0.00000052
     atom    6 type  1   force =    -0.00000004   -0.00000015    0.00000070
     atom    7 type  1   force =     0.00000027   -0.00000002    0.00000077
     atom    8 type  1   force =     0.00000060   -0.00000079    0.00000094
     atom    9 type  2   force =     0.00000000    0.00000000    0.00000000
     atom   10 type  2   force =     0.00000000    0.00000000    0.00000000
     atom   11 type  2   force =     0.00000000    0.00000000    0.00000000
     atom   12 type  2   force =     0.00000000    0.00000000    0.00000000
     atom   13 type  2   force =     0.00000000    0.00000000    0.00000000
     atom   14 type  2   force =     0.00000000    0.00000000    0.00000000
     atom   15 type  2   force =     0.00000000    0.00000000    0.00000000
     atom   16 type  2   force =     0.00000000    0.00000000    0.00000000
     atom   17 type  3   force =     0.00000000    0.00000000    0.00000000
     atom   18 type  3   force =     0.00000000    0.00000000    0.00000000
     atom   19 type  3   force =     0.00000000    0.00000000    0.00000000
     atom   20 type  3   force =     0.00000000    0.00000000    0.00000000
     atom   21 type  2   force =     0.00000265    0.00000246    0.00000310
     atom   22 type  2   force =     0.00000866    0.00000270    0.00000593
     atom   23 type  2   force =     0.00001073    0.00000573    0.00000472
     atom   24 type  2   force =     0.00000467   -0.00000048    0.00000372
     atom   25 type  2   force =    -0.00000025   -0.00000448    0.00000579
     atom   26 type  2   force =    -0.00000321   -0.00000133    0.00000811
     atom   27 type  2   force =     0.00000185   -0.00000120    0.00000655
     atom   28 type  2   force =     0.00000133    0.00000323    0.00000662
     atom   29 type  3   force =    -0.00000033    0.00000221    0.00000420
     atom   30 type  3   force =     0.00000029   -0.00000104    0.00000149
     atom   31 type  3   force =     0.00000186    0.00000015    0.00000317
     atom   32 type  3   force =     0.00000221    0.00000179    0.00000129
     atom   33 type  2   force =     0.00000052   -0.00000089    0.00000117
     atom   34 type  2   force =     0.00000228   -0.00000243   -0.00000038
     atom   35 type  2   force =     0.00000162   -0.00000268    0.00000140
     atom   36 type  2   force =    -0.00000117   -0.00000555   -0.00000168
     atom   37 type  2   force =    -0.00000276    0.00000082    0.00000151
     atom   38 type  2   force =    -0.00000152   -0.00000071    0.00000221
     atom   39 type  2   force =    -0.00000157   -0.00000330    0.00000118
     atom   40 type  2   force =    -0.00000147   -0.00000004   -0.00000023
     atom   41 type  3   force =    -0.00000116    0.00000278    0.00000011
     atom   42 type  3   force =     0.00000056   -0.00000254    0.00000043
     atom   43 type  3   force =    -0.00000137   -0.00000215   -0.00000144
     atom   44 type  3   force =    -0.00000116   -0.00000002   -0.00000073
     atom   45 type  2   force =    -0.00000048    0.00000263   -0.00000240
     atom   46 type  2   force =    -0.00000079   -0.00000386   -0.00000345
     atom   47 type  2   force =    -0.00000572    0.00000164   -0.00000218
     atom   48 type  2   force =    -0.00000450   -0.00000088    0.00000093
     atom   49 type  2   force =     0.00000181    0.00000514   -0.00000086
     atom   50 type  2   force =    -0.00000051    0.00000684   -0.00000043
     atom   51 type  2   force =     0.00000031    0.00000114   -0.00000373
     atom   52 type  2   force =     0.00000202    0.00000231    0.00000132
     atom   53 type  3   force =     0.00000120   -0.00000125   -0.00000098
     atom   54 type  3   force =    -0.00000135    0.00000274   -0.00000237
     atom   55 type  3   force =     0.00000002   -0.00000303   -0.00000264
     atom   56 type  3   force =     0.00000236   -0.00000066   -0.00000302
     atom   57 type  2   force =    -0.00000058   -0.00000103   -0.00000498
     atom   58 type  2   force =     0.00000002    0.00000457   -0.00000763
     atom   59 type  2   force =    -0.00000134   -0.00000262   -0.00000559
     atom   60 type  2   force =     0.00000133    0.00000112   -0.00000613
     atom   61 type  2   force =     0.00000761    0.00000358   -0.00000251
     atom   62 type  2   force =     0.00000656   -0.00000785   -0.00000283
     atom   63 type  2   force =     0.00000744   -0.00000456    0.00000034
     atom   64 type  2   force =     0.00000224   -0.00000031   -0.00000273
     atom   65 type  3   force =     0.00000138    0.00000545   -0.00000362
     atom   66 type  3   force =    -0.00000025   -0.00000205   -0.00000547
     atom   67 type  3   force =     0.00000048    0.00000029   -0.00000436
     atom   68 type  3   force =    -0.00000046    0.00000134   -0.00000695
     atom   69 type  2   force =    -0.00000196    0.00000483   -0.00001627
     atom   70 type  2   force =     0.00000226   -0.00000426   -0.00000696
     atom   71 type  2   force =     0.00000102    0.00000033   -0.00000721
     atom   72 type  2   force =    -0.00000175   -0.00000580   -0.00000579
     atom   73 type  1   force =    -0.00000040   -0.00000010   -0.00000095
     atom   74 type  1   force =    -0.00000102   -0.00000078   -0.00000088
     atom   75 type  1   force =    -0.00000005    0.00000008   -0.00000100
     atom   76 type  2   force =    -0.00000146   -0.00000083   -0.00000257
     atom   77 type  2   force =     0.00000787    0.00000395   -0.00000287
     atom   78 type  2   force =     0.00000523    0.00000264   -0.00000758
     atom   79 type  2   force =     0.00000160    0.00000042   -0.00000811
     atom   80 type  1   force =    -0.00000040    0.00000010   -0.00000060
     atom   81 type  1   force =    -0.00000049    0.00000025    0.00000002
     atom   82 type  1   force =     0.00000259   -0.00000081   -0.00000036
     atom   83 type  1   force =    -0.00000016    0.00000015   -0.00000072
     atom   84 type  3   force =     0.00000008   -0.00000144    0.00000788
     atom   85 type  4   force =     0.00000088    0.00000187    0.00000016
     atom   86 type  4   force =     0.00000106   -0.00000111    0.00000110
     atom   87 type  4   force =     0.00000077   -0.00000130    0.00000229

     Dispersion contribution to forces:
     atom    1 type  1   force =    -0.00028046   -0.00059733    0.00125018
     atom    2 type  1   force =     0.00026603   -0.00027192    0.00079483
     atom    3 type  1   force =     0.00009958   -0.00021684    0.00075156
     atom    4 type  1   force =     0.00035402   -0.00023185    0.00081405
     atom    5 type  1   force =    -0.00057152    0.00011800    0.00119279
     atom    6 type  1   force =    -0.00082684    0.00066905    0.00079630
     atom    7 type  1   force =    -0.00068675    0.00075704    0.00068268
     atom    8 type  1   force =    -0.00059183    0.00026204    0.00088082
     atom    9 type  2   force =    -0.00044794   -0.00071354    0.00007284
     atom   10 type  2   force =    -0.00051617   -0.00079514    0.00001347
     atom   11 type  2   force =    -0.00047010   -0.00067377    0.00004494
     atom   12 type  2   force =    -0.00055321   -0.00076025    0.00006153
     atom   13 type  2   force =    -0.00018722    0.00169276    0.00137151
     atom   14 type  2   force =    -0.00057499    0.00140902    0.00140765
     atom   15 type  2   force =    -0.00048393    0.00137712    0.00142172
     atom   16 type  2   force =    -0.00061062    0.00177210    0.00132400
     atom   17 type  3   force =     0.00042596    0.00004429    0.00264435
     atom   18 type  3   force =     0.00033349    0.00025770    0.00249945
     atom   19 type  3   force =     0.00053892   -0.00007980    0.00239183
     atom   20 type  3   force =     0.00015798    0.00069894    0.00230406
     atom   21 type  2   force =     0.00100940    0.00075668   -0.00004042
     atom   22 type  2   force =     0.00106210    0.00102147   -0.00006130
     atom   23 type  2   force =     0.00095862    0.00096314   -0.00023202
     atom   24 type  2   force =     0.00098393    0.00066682   -0.00000635
     atom   25 type  2   force =     0.00120600   -0.00074897    0.00169424
     atom   26 type  2   force =     0.00124910   -0.00081904    0.00164625
     atom   27 type  2   force =     0.00113666   -0.00087805    0.00113788
     atom   28 type  2   force =     0.00108429   -0.00068208    0.00147902
     atom   29 type  3   force =     0.00054647   -0.00081624    0.00094972
     atom   30 type  3   force =     0.00052568   -0.00074696    0.00094139
     atom   31 type  3   force =     0.00017097   -0.00057249    0.00076643
     atom   32 type  3   force =     0.00012792   -0.00039667    0.00104989
     atom   33 type  2   force =     0.00004707   -0.00128317   -0.00109467
     atom   34 type  2   force =    -0.00018280   -0.00120610   -0.00116282
     atom   35 type  2   force =    -0.00012573   -0.00128339   -0.00120016
     atom   36 type  2   force =    -0.00002212   -0.00123338   -0.00114689
     atom   37 type  2   force =    -0.00124691   -0.00053036    0.00129059
     atom   38 type  2   force =    -0.00117271   -0.00049299    0.00122299
     atom   39 type  2   force =    -0.00124812   -0.00058902    0.00129766
     atom   40 type  2   force =    -0.00140317   -0.00057347    0.00135947
     atom   41 type  3   force =    -0.00077933   -0.00030311    0.00009793
     atom   42 type  3   force =    -0.00086749   -0.00008038   -0.00014213
     atom   43 type  3   force =    -0.00084881   -0.00011098   -0.00020729
     atom   44 type  3   force =    -0.00082505   -0.00036434    0.00026664
     atom   45 type  2   force =    -0.00138239    0.00016551   -0.00082524
     atom   46 type  2   force =    -0.00154483    0.00034790   -0.00111224
     atom   47 type  2   force =    -0.00143574    0.00026567   -0.00099271
     atom   48 type  2   force =    -0.00118060    0.00001571   -0.00043697
     atom   49 type  2   force =     0.00035952    0.00110042    0.00080718
     atom   50 type  2   force =     0.00040652    0.00126293    0.00087706
     atom   51 type  2   force =     0.00044288    0.00121550    0.00035455
     atom   52 type  2   force =     0.00042706    0.00107561    0.00053578
     atom   53 type  3   force =     0.00053209    0.00039073   -0.00109785
     atom   54 type  3   force =     0.00082928    0.00084593   -0.00077903
     atom   55 type  3   force =     0.00061380    0.00016741   -0.00057339
     atom   56 type  3   force =     0.00017524    0.00039910   -0.00103026
     atom   57 type  2   force =     0.00133540    0.00038673   -0.00140910
     atom   58 type  2   force =     0.00142226    0.00079419   -0.00160814
     atom   59 type  2   force =     0.00128384    0.00050296   -0.00126739
     atom   60 type  2   force =     0.00115617    0.00039239   -0.00124372
     atom   61 type  2   force =     0.00053690   -0.00066269    0.00073720
     atom   62 type  2   force =     0.00105937   -0.00050580    0.00093012
     atom   63 type  2   force =     0.00095992   -0.00100128    0.00024268
     atom   64 type  2   force =     0.00121392   -0.00028797    0.00057347
     atom   65 type  3   force =    -0.00015281    0.00068615   -0.00203065
     atom   66 type  3   force =     0.00073256    0.00028263   -0.00104958
     atom   67 type  3   force =     0.00021910    0.00008570   -0.00126876
     atom   68 type  3   force =     0.00127251   -0.00061773   -0.00119698
     atom   69 type  2   force =    -0.00127142   -0.00094114   -0.00175172
     atom   70 type  2   force =    -0.00007075   -0.00086678   -0.00070245
     atom   71 type  2   force =    -0.00051807   -0.00176473   -0.00138914
     atom   72 type  2   force =    -0.00054346   -0.00082675   -0.00061652
     atom   73 type  1   force =    -0.00046844   -0.00103042   -0.00060396
     atom   74 type  1   force =    -0.00092483   -0.00020323   -0.00073239
     atom   75 type  1   force =    -0.00011258   -0.00080060   -0.00086965
     atom   76 type  2   force =    -0.00002090    0.00153945    0.00010863
     atom   77 type  2   force =    -0.00054207    0.00081819   -0.00021571
     atom   78 type  2   force =    -0.00094497    0.00106169   -0.00001916
     atom   79 type  2   force =    -0.00039678    0.00099420   -0.00026967
     atom   80 type  1   force =    -0.00014363    0.00082585   -0.00063233
     atom   81 type  1   force =     0.00041805    0.00093784   -0.00070911
     atom   82 type  1   force =     0.00038053   -0.00005274   -0.00071784
     atom   83 type  1   force =    -0.00001192    0.00084550   -0.00119418
     atom   84 type  3   force =    -0.00003792   -0.00089602   -0.00236480
     atom   85 type  4   force =     0.00122575    0.00118955   -0.00162879
     atom   86 type  4   force =    -0.00167884    0.00003316   -0.00217738
     atom   87 type  4   force =    -0.00038006   -0.00258530   -0.00327645

     Total force =     0.013105     Total SCF correction =     0.000050

     Total Dispersion Force =     0.015587


     Computing stress (Cartesian axis) and pressure


     negative rho (up, down):  4.863E-02 0.000E+00
          total   stress  (Ry/bohr**3)                   (kbar)     P=       -5.31
  -0.00006486   0.00001552  -0.00000743           -9.54        2.28       -1.09
   0.00001552  -0.00004284   0.00001351            2.28       -6.30        1.99
  -0.00000743   0.00001351  -0.00000055           -1.09        1.99       -0.08

     kinetic stress (kbar)   3731.75     21.11      1.52
                               21.11   3812.49     11.45
                                1.52     11.45   3830.72

     local   stress (kbar)-274766.28    194.97    -39.12
                              194.97-274580.19    -19.17
                              -39.12    -19.17 268438.62

     nonloc. stress (kbar)    940.14     -1.33     -0.10
                               -1.33    942.26      0.50
                               -0.10      0.50    941.39

     hartree stress (kbar) 136645.88    -62.78     18.13
                              -62.78 136635.01     19.20
                               18.13     19.20-133799.19

     exc-cor stress (kbar)   -205.57     -0.29      0.03
                               -0.29   -206.35     -0.14
                                0.03     -0.14   -206.87

     corecor stress (kbar)   -653.64      0.24      0.00
                                0.24   -653.71      0.02
                                0.00      0.02   -653.45

     ewald   stress (kbar) 134301.31   -149.61     18.41
                             -149.61 134047.69     -9.78
                               18.41     -9.78-138548.48

     hubbard stress (kbar)      0.00      0.00      0.00
                                0.00      0.00      0.00
                                0.00      0.00      0.00

     DFT-D   stress (kbar)     -3.12     -0.05      0.03
                               -0.05     -3.51     -0.09
                                0.03     -0.09     -2.82

     XDM     stress (kbar)      0.00      0.00      0.00
                                0.00      0.00      0.00
                                0.00      0.00      0.00

     dft-nl  stress (kbar)      0.00      0.00      0.00
                                0.00      0.00      0.00
                                0.00      0.00      0.00

     TS-vdW  stress (kbar)      0.00      0.00      0.00
                                0.00      0.00      0.00
                                0.00      0.00      0.00


                                0.00      0.00      0.00
                                0.00      0.00      0.00


                                0.00      0.00      0.00


     Writing output data file ./out/aiida.save/
 
     init_run     :      6.43s CPU      6.85s WALL (       1 calls)
     electrons    :     52.43s CPU     56.80s WALL (       1 calls)
     forces       :      4.23s CPU      4.47s WALL (       1 calls)
     force_london :      0.05s CPU      0.05s WALL (       1 calls)
     stress       :     16.63s CPU     17.09s WALL (       1 calls)
     stres_london :      0.05s CPU      0.05s WALL (       1 calls)

     Called by init_run:
     wfcinit      :      0.81s CPU      0.86s WALL (       1 calls)
     wfcinit:atom :      0.01s CPU      0.01s WALL (       1 calls)
     wfcinit:wfcr :      0.76s CPU      0.79s WALL (       1 calls)
     potinit      :      1.85s CPU      1.92s WALL (       1 calls)
     hinit0       :      2.59s CPU      2.73s WALL (       1 calls)

     Called by electrons:
     c_bands      :     31.22s CPU     31.86s WALL (      12 calls)
     sum_band     :     11.63s CPU     13.35s WALL (      12 calls)
     v_of_rho     :      2.41s CPU      2.61s WALL (      13 calls)
     v_h          :      0.22s CPU      0.25s WALL (      13 calls)
     v_xc         :      2.50s CPU      2.70s WALL (      15 calls)
     newd         :      6.22s CPU      8.02s WALL (      13 calls)
     PAW_pot      :      1.04s CPU      1.04s WALL (      13 calls)
     mix_rho      :      0.45s CPU      0.50s WALL (      12 calls)
     energy_londo :      0.03s CPU      0.03s WALL (       1 calls)

     Called by c_bands:
     init_us_2    :      0.38s CPU      0.40s WALL (      25 calls)
     regterg      :     30.10s CPU     30.72s WALL (      12 calls)

     Called by sum_band:
     sum_band:wei :      0.00s CPU      0.00s WALL (      12 calls)
     sum_band:loo :      4.18s CPU      4.24s WALL (      12 calls)
     sum_band:buf :      0.00s CPU      0.00s WALL (      12 calls)
     sum_band:ini :      0.18s CPU      0.19s WALL (      12 calls)
     sum_band:cal :      0.66s CPU      0.67s WALL (      12 calls)
     sum_band:bec :      0.01s CPU      0.01s WALL (      12 calls)
     addusdens    :      7.11s CPU      8.75s WALL (      12 calls)
     addusd:skk   :      0.21s CPU      0.52s WALL (      48 calls)
     addusd:dgemm :      2.33s CPU      3.53s WALL (      48 calls)
     addusd:qvan2 :      4.35s CPU      4.40s WALL (      48 calls)

     Called by *egterg:
     rdiaghg      :      1.69s CPU      1.71s WALL (     111 calls)
     regterg:over :      1.78s CPU      1.79s WALL (      99 calls)
     regterg:upda :      2.15s CPU      2.18s WALL (      99 calls)
     regterg:last :      3.23s CPU      3.26s WALL (      30 calls)
     rdiaghg:chol :      0.09s CPU      0.09s WALL (     111 calls)
     rdiaghg:inve :      0.01s CPU      0.01s WALL (     111 calls)
     rdiaghg:para :      0.15s CPU      0.15s WALL (     222 calls)
     h_psi        :     18.55s CPU     18.85s WALL (     112 calls)
     s_psi        :      2.49s CPU      2.51s WALL (     112 calls)
     g_psi        :      0.08s CPU      0.08s WALL (      99 calls)

     Called by h_psi:
     h_psi:calbec :      2.58s CPU      2.62s WALL (     112 calls)
     vloc_psi     :     13.28s CPU     13.48s WALL (     112 calls)
     add_vuspsi   :      2.51s CPU      2.56s WALL (     112 calls)

     General routines
     calbec       :      3.51s CPU      3.56s WALL (     129 calls)
     fft          :      2.64s CPU      2.91s WALL (     161 calls)
     ffts         :      0.07s CPU      0.08s WALL (      25 calls)
     fftw         :      9.14s CPU      9.25s WALL (   10600 calls)
     interpolate  :      0.22s CPU      0.25s WALL (      13 calls)
 
     Parallel routines

     PAW routines
     PAW_pot      :      1.04s CPU      1.04s WALL (      13 calls)
 
     PWSCF        :   1m20.23s CPU   1m26.41s WALL

 
   This run was terminated on:   8:15:23  13Aug2025            

=------------------------------------------------------------------------------=
   JOB DONE.
=------------------------------------------------------------------------------=
